New structure                           
    1.000000000000000     
     0.0000000000000000  -17.1805734624895479    0.0000000000000000
     0.0000000000000000   -8.5902867312447739  -14.8788130701007191
    30.0000000000000000    0.0000000000000000    0.0000000000000000
   Al   O 
   252     2
Direct
  0.4444445572827647  0.4444447261246012  0.0787346666666693
  0.4444441850557865  0.7777777666455776  0.0787346666666693
  0.4444446835052958  0.1111110135069922  0.0787346666666693
  0.7777774354025482  0.4444447261246012  0.0787346666666693
  0.7777776452283192  0.7777777666455776  0.0787346666666693
  0.7777775616250793  0.1111110135069922  0.0787346666666693
  0.1111110971102320  0.4444447261246012  0.0787346666666693
  0.1111113069360030  0.7777777666455776  0.0787346666666693
  0.1111112233327702  0.1111110135069922  0.0787346666666693
  0.5555551985627858  0.5555557396315933  0.1570260000000019
  0.5555554083885568  0.8888887801525769  0.1570260000000019
  0.5555559068380660  0.2222220270139914  0.1570260000000019
  0.8888886587353113  0.5555557396315933  0.1570260000000019
  0.8888888685610894  0.8888887801525769  0.1570260000000019
  0.8888887849578495  0.2222220270139914  0.1570260000000019
  0.2222223204430023  0.5555557396315933  0.1570260000000019
  0.2222225302687733  0.8888887801525769  0.1570260000000019
  0.2222224466655334  0.2222220270139914  0.1570260000000019
  0.6666664218955489  0.6666667531385855  0.2337573333333367
  0.6666669203450653  0.0000000000000000  0.2337573333333367
  0.6666665481180871  0.3333330405209836  0.2337573333333367
  0.0000000836032399  0.6666667531385855  0.2337573333333367
  0.0000000000000000  0.0000000000000000  0.2337573333333367
  0.0000002098257710  0.3333330405209836  0.2337573333333367
  0.3333335437757654  0.6666667531385855  0.2337573333333367
  0.3333334601725326  0.0000000000000000  0.2337573333333367
  0.3333336699983036  0.3333330405209836  0.2337573333333367
  0.7777776452283192  0.7777777666455776  0.3117306666666693
  0.7777775616250793  0.1111110135069922  0.3117306666666693
  0.7777774354025482  0.4444447261246012  0.3117306666666693
  0.1111113069360030  0.7777777666455776  0.3117306666666693
  0.1111112233327702  0.1111110135069922  0.3117306666666693
  0.1111110971102320  0.4444447261246012  0.3117306666666693
  0.4444441850557865  0.7777777666455776  0.3117306666666693
  0.4444446835052958  0.1111110135069922  0.3117306666666693
  0.4444445572827647  0.4444447261246012  0.3117306666666693
  0.8888888685610894  0.8888887801525769  0.3897040000000018
  0.8888887849578495  0.2222220270139914  0.3897040000000018
  0.8888886587353113  0.5555557396315933  0.3897040000000018
  0.2222225302687733  0.8888887801525769  0.3897040000000018
  0.2222224466655334  0.2222220270139914  0.3897040000000018
  0.2222223204430023  0.5555557396315933  0.3897040000000018
  0.5555554083885568  0.8888887801525769  0.3897040000000018
  0.5555559068380660  0.2222220270139914  0.3897040000000018
  0.5555551985627858  0.5555557396315933  0.3897040000000018
  0.0000000000000000  0.0000000000000000  0.4664353333333366
  0.0000002098257710  0.3333330405209836  0.4664353333333366
  0.0000000836032399  0.6666667531385855  0.4664353333333366
  0.3333334601725326  0.0000000000000000  0.4664353333333366
  0.3333336699983036  0.3333330405209836  0.4664353333333366
  0.3333335437757654  0.6666667531385855  0.4664353333333366
  0.6666669203450653  0.0000000000000000  0.4664353333333366
  0.6666665481180871  0.3333330405209836  0.4664353333333366
  0.6666664218955489  0.6666667531385855  0.4664353333333366
  0.1111112233327702  0.1111110135069922  0.5447266666666692
  0.1111110971102320  0.4444447261246012  0.5447266666666692
  0.1111113069360030  0.7777777666455776  0.5447266666666692
  0.4444446835052958  0.1111110135069922  0.5447266666666692
  0.4444445572827647  0.4444447261246012  0.5447266666666692
  0.4444441850557865  0.7777777666455776  0.5447266666666692
  0.7777775616250793  0.1111110135069922  0.5447266666666692
  0.7777774354025482  0.4444447261246012  0.5447266666666692
  0.7777776452283192  0.7777777666455776  0.5447266666666692
  0.2777777673055439  0.2777775337674839  0.0787346666666693
  0.2777776410830128  0.6111112463850858  0.0787346666666693
  0.2777778509087838  0.9444442869060694  0.0787346666666693
  0.6111112274780766  0.2777775337674839  0.0787346666666693
  0.6111111012555384  0.6111112463850858  0.0787346666666693
  0.6111113110813164  0.9444442869060694  0.0787346666666693
  0.9444446876506092  0.2777775337674839  0.0787346666666693
  0.9444445614280710  0.6111112463850858  0.0787346666666693
  0.9444447712538491  0.9444442869060694  0.0787346666666693
  0.3888886545900050  0.3888892193711015  0.1570260000000019
  0.3888888644157760  0.7222222598920851  0.1570260000000019
  0.3888887808125432  0.0555555067534996  0.1570260000000019
  0.7222221147625376  0.3888892193711015  0.1570260000000019
  0.7222223245883086  0.7222222598920851  0.1570260000000019
  0.7222222409850687  0.0555555067534996  0.1570260000000019
  0.0555551944174724  0.3888892193711015  0.1570260000000019
  0.0555554042432505  0.7222222598920851  0.1570260000000019
  0.0555553206400106  0.0555555067534996  0.1570260000000019
  0.4999998779227752  0.5000002328780937  0.2337573333333367
  0.5000000877485462  0.8333332733990773  0.2337573333333367
  0.5000000041453063  0.1666665202604918  0.2337573333333367
  0.8333333380953007  0.5000002328780937  0.2337573333333367
  0.8333335479210788  0.8333332733990773  0.2337573333333367
  0.8333334643178389  0.1666665202604918  0.2337573333333367
  0.1666664177502426  0.5000002328780937  0.2337573333333367
  0.1666666275760136  0.8333332733990773  0.2337573333333367
  0.1666665439727808  0.1666665202604918  0.2337573333333367
  0.6111111012555384  0.6111112463850858  0.3117306666666693
  0.6111113110813164  0.9444442869060694  0.3117306666666693
  0.6111112274780766  0.2777775337674839  0.3117306666666693
  0.9444445614280710  0.6111112463850858  0.3117306666666693
  0.9444447712538491  0.9444442869060694  0.3117306666666693
  0.9444446876506092  0.2777775337674839  0.3117306666666693
  0.2777776410830128  0.6111112463850858  0.3117306666666693
  0.2777778509087838  0.9444442869060694  0.3117306666666693
  0.2777777673055439  0.2777775337674839  0.3117306666666693
  0.7222223245883086  0.7222222598920851  0.3897040000000018
  0.7222222409850687  0.0555555067534996  0.3897040000000018
  0.7222221147625376  0.3888892193711015  0.3897040000000018
  0.0555554042432505  0.7222222598920851  0.3897040000000018
  0.0555553206400106  0.0555555067534996  0.3897040000000018
  0.0555551944174724  0.3888892193711015  0.3897040000000018
  0.3888888644157760  0.7222222598920851  0.3897040000000018
  0.3888887808125432  0.0555555067534996  0.3897040000000018
  0.3888886545900050  0.3888892193711015  0.3897040000000018
  0.8333335479210788  0.8333332733990773  0.4664353333333366
  0.8333334643178389  0.1666665202604918  0.4664353333333366
  0.8333333380953007  0.5000002328780937  0.4664353333333366
  0.1666666275760136  0.8333332733990773  0.4664353333333366
  0.1666665439727808  0.1666665202604918  0.4664353333333366
  0.1666664177502426  0.5000002328780937  0.4664353333333366
  0.5000000877485462  0.8333332733990773  0.4664353333333366
  0.5000000041453063  0.1666665202604918  0.4664353333333366
  0.4999998779227752  0.5000002328780937  0.4664353333333366
  0.9444447712538491  0.9444442869060694  0.5447266666666692
  0.9444446876506092  0.2777775337674839  0.5447266666666692
  0.9444445614280710  0.6111112463850858  0.5447266666666692
  0.2777778509087838  0.9444442869060694  0.5447266666666692
  0.2777777673055439  0.2777775337674839  0.5447266666666692
  0.2777776410830128  0.6111112463850858  0.5447266666666692
  0.6111113110813164  0.9444442869060694  0.5447266666666692
  0.6111112274780766  0.2777775337674839  0.5447266666666692
  0.6111111012555384  0.6111112463850858  0.5447266666666692
  0.2777778271964948  0.4444447261246012  0.0787346666666693
  0.2777780370222729  0.7777777666455776  0.0787346666666693
  0.2777779534190330  0.1111110135069922  0.0787346666666693
  0.6111107053162783  0.4444447261246012  0.0787346666666693
  0.6111109151420564  0.7777777666455776  0.0787346666666693
  0.6111114135915656  0.1111110135069922  0.0787346666666693
  0.9444441654888109  0.4444447261246012  0.0787346666666693
  0.9444443753145819  0.7777777666455776  0.0787346666666693
  0.9444442917113491  0.1111110135069922  0.0787346666666693
  0.3888890505292650  0.5555557396315933  0.1570260000000019
  0.3888886783022940  0.8888887801525769  0.1570260000000019
  0.3888891767518032  0.2222220270139914  0.1570260000000019
  0.7222219286490486  0.5555557396315933  0.1570260000000019
  0.7222221384748195  0.8888887801525769  0.1570260000000019
  0.7222220548715867  0.2222220270139914  0.1570260000000019
  0.0555555903567324  0.5555557396315933  0.1570260000000019
  0.0555558001825105  0.8888887801525769  0.1570260000000019
  0.0555557165792706  0.2222220270139914  0.1570260000000019
  0.4999996918092862  0.6666667531385855  0.2337573333333367
  0.5000001902587954  0.0000000000000000  0.2337573333333367
  0.5000004000845735  0.3333330405209836  0.2337573333333367
  0.8333331519818188  0.6666667531385855  0.2337573333333367
  0.8333330683785789  0.0000000000000000  0.2337573333333367
  0.8333332782043499  0.3333330405209836  0.2337573333333367
  0.1666668136895026  0.6666667531385855  0.2337573333333367
  0.1666667300862628  0.0000000000000000  0.2337573333333367
  0.1666669399120408  0.3333330405209836  0.2337573333333367
  0.6111109151420564  0.7777777666455776  0.3117306666666693
  0.6111114135915656  0.1111110135069922  0.3117306666666693
  0.6111107053162783  0.4444447261246012  0.3117306666666693
  0.9444443753145819  0.7777777666455776  0.3117306666666693
  0.9444442917113491  0.1111110135069922  0.3117306666666693
  0.9444441654888109  0.4444447261246012  0.3117306666666693
  0.2777780370222729  0.7777777666455776  0.3117306666666693
  0.2777779534190330  0.1111110135069922  0.3117306666666693
  0.2777778271964948  0.4444447261246012  0.3117306666666693
  0.7222221384748195  0.8888887801525769  0.3897040000000018
  0.7222220548715867  0.2222220270139914  0.3897040000000018
  0.7222219286490486  0.5555557396315933  0.3897040000000018
  0.0555558001825105  0.8888887801525769  0.3897040000000018
  0.0555557165792706  0.2222220270139914  0.3897040000000018
  0.0555555903567324  0.5555557396315933  0.3897040000000018
  0.3888886783022940  0.8888887801525769  0.3897040000000018
  0.3888891767518032  0.2222220270139914  0.3897040000000018
  0.3888890505292650  0.5555557396315933  0.3897040000000018
  0.8333330683785789  0.0000000000000000  0.4664353333333366
  0.8333332782043499  0.3333330405209836  0.4664353333333366
  0.8333331519818188  0.6666667531385855  0.4664353333333366
  0.1666667300862628  0.0000000000000000  0.4664353333333366
  0.1666669399120408  0.3333330405209836  0.4664353333333366
  0.1666668136895026  0.6666667531385855  0.4664353333333366
  0.5000001902587954  0.0000000000000000  0.4664353333333366
  0.5000004000845735  0.3333330405209836  0.4664353333333366
  0.4999996918092862  0.6666667531385855  0.4664353333333366
  0.9444442917113491  0.1111110135069922  0.5447266666666692
  0.9444441654888109  0.4444447261246012  0.5447266666666692
  0.9444443753145819  0.7777777666455776  0.5447266666666692
  0.2777779534190330  0.1111110135069922  0.5447266666666692
  0.2777778271964948  0.4444447261246012  0.5447266666666692
  0.2777780370222729  0.7777777666455776  0.5447266666666692
  0.6111114135915656  0.1111110135069922  0.5447266666666692
  0.6111107053162783  0.4444447261246012  0.5447266666666692
  0.6111109151420564  0.7777777666455776  0.5447266666666692
  0.4444444973918138  0.2777775337674839  0.0787346666666693
  0.4444443711692756  0.6111112463850858  0.0787346666666693
  0.4444445809950537  0.9444442869060694  0.0787346666666693
  0.7777779575643464  0.2777775337674839  0.0787346666666693
  0.7777778313418082  0.6111112463850858  0.0787346666666693
  0.7777780411675792  0.9444442869060694  0.0787346666666693
  0.1111110372192812  0.2777775337674839  0.0787346666666693
  0.1111109109967430  0.6111112463850858  0.0787346666666693
  0.1111111208225211  0.9444442869060694  0.0787346666666693
  0.5555553846762677  0.3888892193711015  0.1570260000000019
  0.5555555945020458  0.7222222598920851  0.1570260000000019
  0.5555555108988059  0.0555555067534996  0.1570260000000019
  0.8888888448488004  0.3888892193711015  0.1570260000000019
  0.8888890546745785  0.7222222598920851  0.1570260000000019
  0.8888889710713386  0.0555555067534996  0.1570260000000019
  0.2222219245037422  0.3888892193711015  0.1570260000000019
  0.2222221343295132  0.7222222598920851  0.1570260000000019
  0.2222220507262733  0.0555555067534996  0.1570260000000019
  0.6666666080090380  0.5000002328780937  0.2337573333333367
  0.6666668178348161  0.8333332733990773  0.2337573333333367
  0.6666667342315762  0.1666665202604918  0.2337573333333367
  0.9999996876639798  0.5000002328780937  0.2337573333333367
  0.9999998974897508  0.8333332733990773  0.2337573333333367
  0.9999998138865109  0.1666665202604918  0.2337573333333367
  0.3333331478365054  0.5000002328780937  0.2337573333333367
  0.3333333576622834  0.8333332733990773  0.2337573333333367
  0.3333332740590436  0.1666665202604918  0.2337573333333367
  0.7777778313418082  0.6111112463850858  0.3117306666666693
  0.7777780411675792  0.9444442869060694  0.3117306666666693
  0.7777779575643464  0.2777775337674839  0.3117306666666693
  0.1111109109967430  0.6111112463850858  0.3117306666666693
  0.1111111208225211  0.9444442869060694  0.3117306666666693
  0.1111110372192812  0.2777775337674839  0.3117306666666693
  0.4444443711692756  0.6111112463850858  0.3117306666666693
  0.4444445809950537  0.9444442869060694  0.3117306666666693
  0.4444444973918138  0.2777775337674839  0.3117306666666693
  0.8888890546745785  0.7222222598920851  0.3897040000000018
  0.8888889710713386  0.0555555067534996  0.3897040000000018
  0.8888888448488004  0.3888892193711015  0.3897040000000018
  0.2222221343295132  0.7222222598920851  0.3897040000000018
  0.2222220507262733  0.0555555067534996  0.3897040000000018
  0.2222219245037422  0.3888892193711015  0.3897040000000018
  0.5555555945020458  0.7222222598920851  0.3897040000000018
  0.5555555108988059  0.0555555067534996  0.3897040000000018
  0.5555553846762677  0.3888892193711015  0.3897040000000018
  0.9999998974897508  0.8333332733990773  0.4664353333333366
  0.9999998138865109  0.1666665202604918  0.4664353333333366
  0.9999996876639798  0.5000002328780937  0.4664353333333366
  0.3333333576622834  0.8333332733990773  0.4664353333333366
  0.3333332740590436  0.1666665202604918  0.4664353333333366
  0.3333331478365054  0.5000002328780937  0.4664353333333366
  0.6666668178348161  0.8333332733990773  0.4664353333333366
  0.6666667342315762  0.1666665202604918  0.4664353333333366
  0.6666666080090380  0.5000002328780937  0.4664353333333366
  0.1111111208225211  0.9444442869060694  0.5447266666666692
  0.1111110372192812  0.2777775337674839  0.5447266666666692
  0.1111109109967430  0.6111112463850858  0.5447266666666692
  0.4444445809950537  0.9444442869060694  0.5447266666666692
  0.4444444973918138  0.2777775337674839  0.5447266666666692
  0.4444443711692756  0.6111112463850858  0.5447266666666692
  0.7777780411675792  0.9444442869060694  0.5447266666666692
  0.7777779575643464  0.2777775337674839  0.5447266666666692
  0.7777778313418082  0.6111112463850858  0.5447266666666692
  0.3400342872036219  0.4865979541438676  0.7013333333333307
  0.3821749394046563  0.4023170377769603  0.7013333333333307
 
  0.00000000E+00  0.00000000E+00  0.00000000E+00
  0.00000000E+00  0.00000000E+00  0.00000000E+00
  0.00000000E+00  0.00000000E+00  0.00000000E+00
  0.00000000E+00  0.00000000E+00  0.00000000E+00
  0.00000000E+00  0.00000000E+00  0.00000000E+00
  0.00000000E+00  0.00000000E+00  0.00000000E+00
  0.00000000E+00  0.00000000E+00  0.00000000E+00
  0.00000000E+00  0.00000000E+00  0.00000000E+00
  0.00000000E+00  0.00000000E+00  0.00000000E+00
  0.00000000E+00  0.00000000E+00  0.00000000E+00
  0.00000000E+00  0.00000000E+00  0.00000000E+00
  0.00000000E+00  0.00000000E+00  0.00000000E+00
  0.00000000E+00  0.00000000E+00  0.00000000E+00
  0.00000000E+00  0.00000000E+00  0.00000000E+00
  0.00000000E+00  0.00000000E+00  0.00000000E+00
  0.00000000E+00  0.00000000E+00  0.00000000E+00
  0.00000000E+00  0.00000000E+00  0.00000000E+00
  0.00000000E+00  0.00000000E+00  0.00000000E+00
  0.00000000E+00  0.00000000E+00  0.00000000E+00
  0.00000000E+00  0.00000000E+00  0.00000000E+00
  0.00000000E+00  0.00000000E+00  0.00000000E+00
  0.00000000E+00  0.00000000E+00  0.00000000E+00
  0.00000000E+00  0.00000000E+00  0.00000000E+00
  0.00000000E+00  0.00000000E+00  0.00000000E+00
  0.00000000E+00  0.00000000E+00  0.00000000E+00
  0.00000000E+00  0.00000000E+00  0.00000000E+00
  0.00000000E+00  0.00000000E+00  0.00000000E+00
  0.00000000E+00  0.00000000E+00  0.00000000E+00
  0.00000000E+00  0.00000000E+00  0.00000000E+00
  0.00000000E+00  0.00000000E+00  0.00000000E+00
  0.00000000E+00  0.00000000E+00  0.00000000E+00
  0.00000000E+00  0.00000000E+00  0.00000000E+00
  0.00000000E+00  0.00000000E+00  0.00000000E+00
  0.00000000E+00  0.00000000E+00  0.00000000E+00
  0.00000000E+00  0.00000000E+00  0.00000000E+00
  0.00000000E+00  0.00000000E+00  0.00000000E+00
  0.00000000E+00  0.00000000E+00  0.00000000E+00
  0.00000000E+00  0.00000000E+00  0.00000000E+00
  0.00000000E+00  0.00000000E+00  0.00000000E+00
  0.00000000E+00  0.00000000E+00  0.00000000E+00
  0.00000000E+00  0.00000000E+00  0.00000000E+00
  0.00000000E+00  0.00000000E+00  0.00000000E+00
  0.00000000E+00  0.00000000E+00  0.00000000E+00
  0.00000000E+00  0.00000000E+00  0.00000000E+00
  0.00000000E+00  0.00000000E+00  0.00000000E+00
  0.00000000E+00  0.00000000E+00  0.00000000E+00
  0.00000000E+00  0.00000000E+00  0.00000000E+00
  0.00000000E+00  0.00000000E+00  0.00000000E+00
  0.00000000E+00  0.00000000E+00  0.00000000E+00
  0.00000000E+00  0.00000000E+00  0.00000000E+00
  0.00000000E+00  0.00000000E+00  0.00000000E+00
  0.00000000E+00  0.00000000E+00  0.00000000E+00
  0.00000000E+00  0.00000000E+00  0.00000000E+00
  0.00000000E+00  0.00000000E+00  0.00000000E+00
  0.00000000E+00  0.00000000E+00  0.00000000E+00
  0.00000000E+00  0.00000000E+00  0.00000000E+00
  0.00000000E+00  0.00000000E+00  0.00000000E+00
  0.00000000E+00  0.00000000E+00  0.00000000E+00
  0.00000000E+00  0.00000000E+00  0.00000000E+00
  0.00000000E+00  0.00000000E+00  0.00000000E+00
  0.00000000E+00  0.00000000E+00  0.00000000E+00
  0.00000000E+00  0.00000000E+00  0.00000000E+00
  0.00000000E+00  0.00000000E+00  0.00000000E+00
  0.00000000E+00  0.00000000E+00  0.00000000E+00
  0.00000000E+00  0.00000000E+00  0.00000000E+00
  0.00000000E+00  0.00000000E+00  0.00000000E+00
  0.00000000E+00  0.00000000E+00  0.00000000E+00
  0.00000000E+00  0.00000000E+00  0.00000000E+00
  0.00000000E+00  0.00000000E+00  0.00000000E+00
  0.00000000E+00  0.00000000E+00  0.00000000E+00
  0.00000000E+00  0.00000000E+00  0.00000000E+00
  0.00000000E+00  0.00000000E+00  0.00000000E+00
  0.00000000E+00  0.00000000E+00  0.00000000E+00
  0.00000000E+00  0.00000000E+00  0.00000000E+00
  0.00000000E+00  0.00000000E+00  0.00000000E+00
  0.00000000E+00  0.00000000E+00  0.00000000E+00
  0.00000000E+00  0.00000000E+00  0.00000000E+00
  0.00000000E+00  0.00000000E+00  0.00000000E+00
  0.00000000E+00  0.00000000E+00  0.00000000E+00
  0.00000000E+00  0.00000000E+00  0.00000000E+00
  0.00000000E+00  0.00000000E+00  0.00000000E+00
  0.00000000E+00  0.00000000E+00  0.00000000E+00
  0.00000000E+00  0.00000000E+00  0.00000000E+00
  0.00000000E+00  0.00000000E+00  0.00000000E+00
  0.00000000E+00  0.00000000E+00  0.00000000E+00
  0.00000000E+00  0.00000000E+00  0.00000000E+00
  0.00000000E+00  0.00000000E+00  0.00000000E+00
  0.00000000E+00  0.00000000E+00  0.00000000E+00
  0.00000000E+00  0.00000000E+00  0.00000000E+00
  0.00000000E+00  0.00000000E+00  0.00000000E+00
  0.00000000E+00  0.00000000E+00  0.00000000E+00
  0.00000000E+00  0.00000000E+00  0.00000000E+00
  0.00000000E+00  0.00000000E+00  0.00000000E+00
  0.00000000E+00  0.00000000E+00  0.00000000E+00
  0.00000000E+00  0.00000000E+00  0.00000000E+00
  0.00000000E+00  0.00000000E+00  0.00000000E+00
  0.00000000E+00  0.00000000E+00  0.00000000E+00
  0.00000000E+00  0.00000000E+00  0.00000000E+00
  0.00000000E+00  0.00000000E+00  0.00000000E+00
  0.00000000E+00  0.00000000E+00  0.00000000E+00
  0.00000000E+00  0.00000000E+00  0.00000000E+00
  0.00000000E+00  0.00000000E+00  0.00000000E+00
  0.00000000E+00  0.00000000E+00  0.00000000E+00
  0.00000000E+00  0.00000000E+00  0.00000000E+00
  0.00000000E+00  0.00000000E+00  0.00000000E+00
  0.00000000E+00  0.00000000E+00  0.00000000E+00
  0.00000000E+00  0.00000000E+00  0.00000000E+00
  0.00000000E+00  0.00000000E+00  0.00000000E+00
  0.00000000E+00  0.00000000E+00  0.00000000E+00
  0.00000000E+00  0.00000000E+00  0.00000000E+00
  0.00000000E+00  0.00000000E+00  0.00000000E+00
  0.00000000E+00  0.00000000E+00  0.00000000E+00
  0.00000000E+00  0.00000000E+00  0.00000000E+00
  0.00000000E+00  0.00000000E+00  0.00000000E+00
  0.00000000E+00  0.00000000E+00  0.00000000E+00
  0.00000000E+00  0.00000000E+00  0.00000000E+00
  0.00000000E+00  0.00000000E+00  0.00000000E+00
  0.00000000E+00  0.00000000E+00  0.00000000E+00
  0.00000000E+00  0.00000000E+00  0.00000000E+00
  0.00000000E+00  0.00000000E+00  0.00000000E+00
  0.00000000E+00  0.00000000E+00  0.00000000E+00
  0.00000000E+00  0.00000000E+00  0.00000000E+00
  0.00000000E+00  0.00000000E+00  0.00000000E+00
  0.00000000E+00  0.00000000E+00  0.00000000E+00
  0.00000000E+00  0.00000000E+00  0.00000000E+00
  0.00000000E+00  0.00000000E+00  0.00000000E+00
  0.00000000E+00  0.00000000E+00  0.00000000E+00
  0.00000000E+00  0.00000000E+00  0.00000000E+00
  0.00000000E+00  0.00000000E+00  0.00000000E+00
  0.00000000E+00  0.00000000E+00  0.00000000E+00
  0.00000000E+00  0.00000000E+00  0.00000000E+00
  0.00000000E+00  0.00000000E+00  0.00000000E+00
  0.00000000E+00  0.00000000E+00  0.00000000E+00
  0.00000000E+00  0.00000000E+00  0.00000000E+00
  0.00000000E+00  0.00000000E+00  0.00000000E+00
  0.00000000E+00  0.00000000E+00  0.00000000E+00
  0.00000000E+00  0.00000000E+00  0.00000000E+00
  0.00000000E+00  0.00000000E+00  0.00000000E+00
  0.00000000E+00  0.00000000E+00  0.00000000E+00
  0.00000000E+00  0.00000000E+00  0.00000000E+00
  0.00000000E+00  0.00000000E+00  0.00000000E+00
  0.00000000E+00  0.00000000E+00  0.00000000E+00
  0.00000000E+00  0.00000000E+00  0.00000000E+00
  0.00000000E+00  0.00000000E+00  0.00000000E+00
  0.00000000E+00  0.00000000E+00  0.00000000E+00
  0.00000000E+00  0.00000000E+00  0.00000000E+00
  0.00000000E+00  0.00000000E+00  0.00000000E+00
  0.00000000E+00  0.00000000E+00  0.00000000E+00
  0.00000000E+00  0.00000000E+00  0.00000000E+00
  0.00000000E+00  0.00000000E+00  0.00000000E+00
  0.00000000E+00  0.00000000E+00  0.00000000E+00
  0.00000000E+00  0.00000000E+00  0.00000000E+00
  0.00000000E+00  0.00000000E+00  0.00000000E+00
  0.00000000E+00  0.00000000E+00  0.00000000E+00
  0.00000000E+00  0.00000000E+00  0.00000000E+00
  0.00000000E+00  0.00000000E+00  0.00000000E+00
  0.00000000E+00  0.00000000E+00  0.00000000E+00
  0.00000000E+00  0.00000000E+00  0.00000000E+00
  0.00000000E+00  0.00000000E+00  0.00000000E+00
  0.00000000E+00  0.00000000E+00  0.00000000E+00
  0.00000000E+00  0.00000000E+00  0.00000000E+00
  0.00000000E+00  0.00000000E+00  0.00000000E+00
  0.00000000E+00  0.00000000E+00  0.00000000E+00
  0.00000000E+00  0.00000000E+00  0.00000000E+00
  0.00000000E+00  0.00000000E+00  0.00000000E+00
  0.00000000E+00  0.00000000E+00  0.00000000E+00
  0.00000000E+00  0.00000000E+00  0.00000000E+00
  0.00000000E+00  0.00000000E+00  0.00000000E+00
  0.00000000E+00  0.00000000E+00  0.00000000E+00
  0.00000000E+00  0.00000000E+00  0.00000000E+00
  0.00000000E+00  0.00000000E+00  0.00000000E+00
  0.00000000E+00  0.00000000E+00  0.00000000E+00
  0.00000000E+00  0.00000000E+00  0.00000000E+00
  0.00000000E+00  0.00000000E+00  0.00000000E+00
  0.00000000E+00  0.00000000E+00  0.00000000E+00
  0.00000000E+00  0.00000000E+00  0.00000000E+00
  0.00000000E+00  0.00000000E+00  0.00000000E+00
  0.00000000E+00  0.00000000E+00  0.00000000E+00
  0.00000000E+00  0.00000000E+00  0.00000000E+00
  0.00000000E+00  0.00000000E+00  0.00000000E+00
  0.00000000E+00  0.00000000E+00  0.00000000E+00
  0.00000000E+00  0.00000000E+00  0.00000000E+00
  0.00000000E+00  0.00000000E+00  0.00000000E+00
  0.00000000E+00  0.00000000E+00  0.00000000E+00
  0.00000000E+00  0.00000000E+00  0.00000000E+00
  0.00000000E+00  0.00000000E+00  0.00000000E+00
  0.00000000E+00  0.00000000E+00  0.00000000E+00
  0.00000000E+00  0.00000000E+00  0.00000000E+00
  0.00000000E+00  0.00000000E+00  0.00000000E+00
  0.00000000E+00  0.00000000E+00  0.00000000E+00
  0.00000000E+00  0.00000000E+00  0.00000000E+00
  0.00000000E+00  0.00000000E+00  0.00000000E+00
  0.00000000E+00  0.00000000E+00  0.00000000E+00
  0.00000000E+00  0.00000000E+00  0.00000000E+00
  0.00000000E+00  0.00000000E+00  0.00000000E+00
  0.00000000E+00  0.00000000E+00  0.00000000E+00
  0.00000000E+00  0.00000000E+00  0.00000000E+00
  0.00000000E+00  0.00000000E+00  0.00000000E+00
  0.00000000E+00  0.00000000E+00  0.00000000E+00
  0.00000000E+00  0.00000000E+00  0.00000000E+00
  0.00000000E+00  0.00000000E+00  0.00000000E+00
  0.00000000E+00  0.00000000E+00  0.00000000E+00
  0.00000000E+00  0.00000000E+00  0.00000000E+00
  0.00000000E+00  0.00000000E+00  0.00000000E+00
  0.00000000E+00  0.00000000E+00  0.00000000E+00
  0.00000000E+00  0.00000000E+00  0.00000000E+00
  0.00000000E+00  0.00000000E+00  0.00000000E+00
  0.00000000E+00  0.00000000E+00  0.00000000E+00
  0.00000000E+00  0.00000000E+00  0.00000000E+00
  0.00000000E+00  0.00000000E+00  0.00000000E+00
  0.00000000E+00  0.00000000E+00  0.00000000E+00
  0.00000000E+00  0.00000000E+00  0.00000000E+00
  0.00000000E+00  0.00000000E+00  0.00000000E+00
  0.00000000E+00  0.00000000E+00  0.00000000E+00
  0.00000000E+00  0.00000000E+00  0.00000000E+00
  0.00000000E+00  0.00000000E+00  0.00000000E+00
  0.00000000E+00  0.00000000E+00  0.00000000E+00
  0.00000000E+00  0.00000000E+00  0.00000000E+00
  0.00000000E+00  0.00000000E+00  0.00000000E+00
  0.00000000E+00  0.00000000E+00  0.00000000E+00
  0.00000000E+00  0.00000000E+00  0.00000000E+00
  0.00000000E+00  0.00000000E+00  0.00000000E+00
  0.00000000E+00  0.00000000E+00  0.00000000E+00
  0.00000000E+00  0.00000000E+00  0.00000000E+00
  0.00000000E+00  0.00000000E+00  0.00000000E+00
  0.00000000E+00  0.00000000E+00  0.00000000E+00
  0.00000000E+00  0.00000000E+00  0.00000000E+00
  0.00000000E+00  0.00000000E+00  0.00000000E+00
  0.00000000E+00  0.00000000E+00  0.00000000E+00
  0.00000000E+00  0.00000000E+00  0.00000000E+00
  0.00000000E+00  0.00000000E+00  0.00000000E+00
  0.00000000E+00  0.00000000E+00  0.00000000E+00
  0.00000000E+00  0.00000000E+00  0.00000000E+00
  0.00000000E+00  0.00000000E+00  0.00000000E+00
  0.00000000E+00  0.00000000E+00  0.00000000E+00
  0.00000000E+00  0.00000000E+00  0.00000000E+00
  0.00000000E+00  0.00000000E+00  0.00000000E+00
  0.00000000E+00  0.00000000E+00  0.00000000E+00
  0.00000000E+00  0.00000000E+00  0.00000000E+00
  0.00000000E+00  0.00000000E+00  0.00000000E+00
  0.00000000E+00  0.00000000E+00  0.00000000E+00
  0.00000000E+00  0.00000000E+00  0.00000000E+00
  0.00000000E+00  0.00000000E+00  0.00000000E+00
  0.00000000E+00  0.00000000E+00  0.00000000E+00
  0.00000000E+00  0.00000000E+00  0.00000000E+00
  0.00000000E+00  0.00000000E+00  0.00000000E+00
  0.00000000E+00  0.00000000E+00  0.00000000E+00
  0.00000000E+00  0.00000000E+00  0.00000000E+00
  0.00000000E+00  0.00000000E+00  0.00000000E+00
  0.00000000E+00  0.00000000E+00  0.00000000E+00
  0.00000000E+00  0.00000000E+00  0.00000000E+00
  0.00000000E+00  0.00000000E+00  0.00000000E+00
  0.00000000E+00  0.00000000E+00  0.00000000E+00
  0.00000000E+00  0.00000000E+00  0.00000000E+00
