New structure                           
    1.000000000000000     
     0.0000000000000000  -17.1805734624895479    0.0000000000000000
     0.0000000000000000   -8.5902867312447739  -14.8788130701007191
    30.0000000000000000    0.0000000000000000    0.0000000000000000
   Al   O 
   252     2
Direct
  0.4472519197134320  0.6136565268079205  0.5427830058594255
  0.6163624472539881  0.4415451453009960  0.5410398113592060
  0.7800757080413859  0.2760874128799894  0.5413798812099118
  0.9446019579064235  0.1110183166998866  0.5408059677208813
  0.9455919617016300  0.2769364062739241  0.5407442616042768
  0.9444444814418194  0.4439852240998388  0.5407732822620464
  0.7773600661432194  0.6115764231479393  0.5407522190556199
  0.6111014060645992  0.7776209255302163  0.5409163399892641
  0.4450437307770062  0.9438342704533192  0.5407093004666659
  0.6115328346105254  0.9440352442494799  0.5404666071792522
  0.7776641318017924  0.9439617234988463  0.5405090492178962
  0.9443970379490412  0.7775289902407695  0.5408878252962771
  0.9441268784229017  0.6114740597008572  0.5407014929638934
  0.8330036412082451  0.6670684343198607  0.4632442726602192
  0.6669797808192316  0.8334754292321791  0.4631714312974041
  0.7222522685313401  0.8887685191188713  0.3880367103499449
  0.8889793875242080  0.7223461922483730  0.3878618710887898
  0.9442872240473096  0.7778238867830704  0.3116098064572752
  0.7778091240486767  0.9443133737713842  0.3115268049924264
  0.9444419418074007  0.9443817698040461  0.3115924031982738
  0.8891172025641925  0.8884739549630944  0.3878826868907603
  0.8327820498608899  0.8334977458949078  0.4631773634711496
  0.7775412073319599  0.7781049676549380  0.5404507693139569
  0.7799849395832336  0.4435314300617418  0.5413489748185939
  0.6702056187657239  0.4993051144199986  0.4637316413260220
  0.8349809249165506  0.3323130302793492  0.4636337887542245
  0.8893281336579588  0.3885726193162496  0.3879602943276794
  0.7223130056657570  0.5555258324742894  0.3878494563545213
  0.7777417392354036  0.6112470889356438  0.3115640817793329
  0.6111370786020383  0.7778337989681225  0.3116207837695497
  0.6669072795100168  0.8335171496317031  0.2351895775321284
  0.8330466554114795  0.6672560465662075  0.2352559605123571
  0.8886344683569536  0.7228933711236717  0.1596888412374527
  0.7222222317082881  0.8888923068322123  0.1596858922168233
  0.7777714272053143  0.9443545204598338  0.0825811932046840
  0.9442322469774908  0.7778876387640556  0.0824241688540973
  0.9441966876234864  0.9445740904541796  0.0825492535420411
  0.8886523418965568  0.8885126412116251  0.1596968225664921
  0.8329518215229436  0.8335625464238131  0.2351752613217565
  0.7777108218572443  0.7778749180965321  0.3115058815146116
  0.7217972762721899  0.7223107879754872  0.3878758526785577
  0.6668665038374951  0.6668050760756449  0.4633627818467023
  0.5553980630051132  0.7219636386507662  0.3880806316321367
  0.5002555493164077  0.8334030179946904  0.4633496478994302
  0.3328700133969026  0.8366496304038645  0.4637413828543392
  0.2750921493215893  0.7827480646372205  0.5410874195782328
  0.1096461584299917  0.9464439801081062  0.5413936674878217
  0.2770442526656726  0.9463955269820715  0.5413967050084662
  0.4439685950208807  0.7789755137547485  0.5417617372590531
  0.5004908214497686  0.6669548293177403  0.4641704708278080
  0.6125592504772615  0.6104066560303757  0.5417754883924887
  0.6112435995859674  0.9443017022010342  0.3115494379529259
  0.4446086109314168  0.9443454265009293  0.3115474520939541
  0.3889086346141960  0.8889334501941475  0.3878490494850123
  0.3879142908406249  0.7234685642498168  0.3878566790505424
  0.2217151998635674  0.7234067042549509  0.3878913207900920
  0.0554306954693214  0.8889184313719466  0.3879337870716145
 -0.0005267910342420  0.8334047710538228  0.4633719565482216
  0.1655841897802230  0.6669066678759161  0.4641730532784688
  0.2719072346096525  0.6137260288340965  0.5427716225923620
  0.1099553019087961  0.6102339339116658  0.5417368797057937
  0.2750253141111312  0.4414248945869289  0.5410522563082434
  0.4438992508957321  0.2764088449766021  0.5417430443065651
  0.6111404373520709  0.1108032111540249  0.5409281918691855
  0.6669916745097944  0.1659149289329646  0.4634099418399760
  0.8331683708400117 -0.0003852904430712  0.4632777470779575
  0.8889335008582300  0.0554081058963254  0.3877858737159461
  0.7224290896293903  0.2218397049577827  0.3878777238454174
  0.7779015620861423  0.2775348375997732  0.3115251330065528
  0.6118621671428627  0.4439897848374965  0.3113357195420562
  0.6666460986989259  0.5001497071551096  0.2352247904744007
  0.5003010893479404  0.6669771867132609  0.2349275745716878
  0.5560867905291651  0.7226734369868957  0.1597216791011033
  0.3890958877268120  0.8888928366004988  0.1597685729204690
  0.3334699779806146  0.8333289544637469  0.2352233907238409
  0.2773757924152174  0.7784985880154183  0.3113378794181944
  0.1109186669252112  0.9444933717057878  0.3115610622588193
  0.2779194267155062  0.9444375797330189  0.3115160590890950
  0.2214084137199424  0.8903968687554602  0.3880737993930539
  0.1636421970815438  0.8366832056995062  0.4637789653166742
  0.1099201871319951  0.7791292762196061  0.5418055090932559
  0.9443017797298624  0.6112312087243759  0.3115480446594975
  0.9444367315300062  0.4444230875081729  0.3116649785110668
  0.9446138140469498  0.2776870028005261  0.3119329660712053
  0.9445150807934318  0.1110834487738380  0.3116717508170235
  0.8332221265177253  0.1664411836222124  0.2356276577551825
  0.6668233151480241  0.1661441495551258  0.2354869715980283
  0.5003712429953956  0.3325928297048070  0.2349430905461532
  0.5560881199426628  0.3883430155410911  0.1599077221889944
  0.3888724286715675  0.5555532034710455  0.1605597428887899
  0.4443761658313430  0.6109745133571447  0.0830882530349914
  0.6113305073852029  0.4443184365248326  0.0827980269501639
  0.7780686471684704  0.2775628597671287  0.0829094256489698
  0.7222035059170915  0.2220019692340925  0.1598283051211765
  0.7218506089128957  0.0552788769331213  0.1597417604740851
  0.8889743767317060  0.0556174248329093  0.1599931377535153
  0.8331206432649756 -0.0002813423782817  0.2352896418706463
  0.7778481189789247  0.1109224461665869  0.3115962490624407
  0.6112274494582337  0.1108334791777207  0.3116521097474135
  0.5557974222182808  0.0555079380368654  0.3879339994279972
  0.5005550272756260 -0.0005039173334663  0.4632625847862695
  0.3331202306637056  0.1657510711424891  0.4636351260721821
  0.1657560018863645  0.3321770704751368  0.4636837452690720
  0.9992843326884988  0.4996103627803234  0.4636202230348071
  0.0552769406561476  0.5554035466247988  0.3878821401388720
  0.2213248532883559  0.3878369135380155  0.3880279252841485
  0.2773597155947608  0.4438975992936498  0.3113360356280513
  0.1111456468420465  0.6109615408163845  0.3116267695294025
  0.1659845414652363  0.6669952830318157  0.2349719072731450
  0.9995340019220640  0.8334631868319602  0.2354299080894589
  0.0553764979890196  0.8889380889465375  0.1598009986905071
  0.2216317303976243  0.7227769862580350  0.1599115761591373
  0.2776492985851127  0.7780233423073623  0.0828097171878726
  0.1108545159851689  0.9447579145198950  0.0829185939822513
  0.2777635680179522  0.9446470036288016  0.0828805072312319
  0.4445544892396814  0.9445367762340091  0.0825376745876477
  0.6111825158487735  0.7778893487097831  0.0824098043646722
  0.7779217002192178  0.6112104663110840  0.0825406009646705
  0.7221929086325787  0.5558328699858610  0.1597960956730185
  0.8331861109876543  0.5004192492833447  0.2356056699349397
  0.8893396143895387  0.3884591603126760  0.1603533672667706
  0.8336573989714021  0.3332112762628479  0.2355848941804948
  0.7228820100127954  0.3885728254357132  0.1600340198952316
  0.6666788444114029  0.3331541683039082  0.2352578353438177
  0.6110832944817950  0.2777701058030482  0.3116464170198902
  0.5554636315601593  0.2222356502744705  0.3881119595516385
  0.4444028954054798  0.2776911955695280  0.3115888798699391
  0.3878998315793140  0.3881781119375411  0.3878665389845229
  0.5005136092256619  0.3320181713208136  0.4641647136716020
  0.3279965483105045  0.4943608595111129  0.4651653784457992
  0.3888616395444258  0.5553673040743954  0.3830378056367664
  0.4448755107580492  0.6115501723352149  0.3104716793035541
  0.2767119708268357  0.6115215797234042  0.3104794390096483
  0.3331737630481730  0.4998096863478343  0.2349137419893445
  0.1664989743056570  0.5001336935638581  0.2352232325094976
 -0.0002692651056672  0.5004150016430897  0.2356048140728187
  0.1665415609069514  0.3331517907462020  0.2355629713316555
  0.2218487121278541  0.3885977888227629  0.1600241305439524
  0.3891731515964586  0.2219817499384542  0.1597769022213716
  0.5562676974667746  0.0552441846691583  0.1597128626895646
  0.5006725172614397 -0.0003706833745174  0.2352556339684500
  0.3337602848779688  0.1663774798652665  0.2355958860131779
  0.2779214213343784  0.2774253176594401  0.3115013442546730
  0.1110186487011428  0.2776463738431733  0.3119367902002869
  0.0555769358824710  0.2220768586261998  0.3880503712630807
  0.0001816908755937  0.1666306390192666  0.4634718103938243
  0.1658619861446988  0.0014956387458310  0.4636672765382082
  0.2219464973474224  0.0559539985087011  0.3879682710590497
  0.2777819573417444  0.1110326691046284  0.3116690427756091
  0.3890307265916110  0.0553304650878723  0.3877602145964267
  0.3889264874896406  0.2217433278705468  0.3878426251517610
  0.5002870420143734  0.1658345131320679  0.4633749730534428
  0.4450335694154103  0.1105082635663999  0.5407339631808198
  0.2774591504611478  0.1109137906035471  0.5408791274646205
  0.1103348353784376  0.2768083427605981  0.5408348748946531
  0.2769453518029693  0.2758205451171479  0.5414251194201740
  0.1094121939853610  0.4433433573447493  0.5414095268448993
  0.1635366090379659  0.4991178835909601  0.4637459737291140
  0.3327154434733285  0.3299235689671040  0.4637256700757021
  0.5002598662501465  0.4998000516034961  0.2349309748769365
  0.4448898046847546  0.4433224725130466  0.3104683994395376
  0.7219443564720641  0.0556020283313908  0.3879086590221935
  0.6670953333468492 -0.0008292110886699  0.4632169499764698
  0.8340819670473744  0.4996663259010002  0.4635957344358034
  0.8887643164551331  0.5556109605060189  0.3877568297249118
  0.4442274100459645  0.7781160060746840  0.0826214832735641
  0.3888537513997562  0.7227501207538882  0.1598777099528208
  0.3331573254464957  0.6669186361082171  0.2349179194872570
  0.1665024065336417  0.8333441035905008  0.2352622007900361
  0.1111450308248706  0.7777215059784475  0.3116552897581761
  0.0558167564765025  0.7218953119902881  0.3880969590821845
 -0.0006133478262254  0.6667318204921566  0.4633344873339337
  0.6114401147453019  0.6109106675054632  0.0825980215892203
  0.5560627421906771  0.5555375453906752  0.1598975793516389
  0.2218167972968091  0.8896294730373435  0.1600517313846496
  0.7780384950435469  0.4443984677371340  0.0828869815000358
  0.9445732411991044  0.4442593273944843  0.0829871015645188
  0.9441979881181572  0.6112716143469343  0.0825195329331585
  0.8889700589923384  0.5554726361318044  0.1599509066600674
  0.7218189114803583  0.7229004341822415  0.1597216984432553
  0.6667457992798546  0.6670324121038753  0.2354575429359539
  0.6110261748874461  0.6109929084807708  0.3116078268898667
  0.5568858528932703  0.5544918141203719  0.3878874188301667
  0.5104971675859207  0.4944866733352098  0.4651407670888588
  0.5568637527268950  0.3882350210411709  0.3878760941644868
  0.7238061301965064  0.3879625670409487  0.3880450066188534
  0.6702504994218018  0.3300586579696456  0.4637312019964819
  0.6127196063256094  0.2763945329321568  0.5418002010294887
  0.7775763147575070  0.1105605375974294  0.5408405670176925
  0.8341992540588824  0.1658704007180199  0.4636473209462668
  0.8894167603946678  0.2218634064181160  0.3879673940842330
  0.9445568030155960  0.2777508859090840  0.0830263478102750
  0.9445472593116716  0.1112239719652922  0.0830141363087397
  0.8893404595130859  0.2222846791274540  0.1603735253491167
  0.5003753898197584  0.8334138080700610  0.2354067956508396
  0.4443723020339581  0.7776901811894065  0.3115804896124578
  0.7777471687919015  0.7778465106684265  0.0825706749600638
  0.6111982493042085  0.9443532020799623  0.0825469336226339
  0.5562248193591468  0.8885123832964604  0.1597052624752708
  0.7779835979754024  0.1108172742889025  0.0825777331538134
  0.6112377478606665  0.1108360060247067  0.0824209803036750
  0.4443215781079323  0.2775873512106355  0.0826303704049445
  0.2777301995983942  0.4443224186876981  0.0828058289834337
  0.1109426474450475  0.6109403118909634  0.0826020357171633
  0.0553665166637213  0.5557583275336799  0.1597742896016014
  0.0546684075911739  0.7226938310937409  0.1597161503613851
  0.9995106584622411  0.6670728107014346  0.2354119577908874
  0.6115056734154575  0.2775642002406132  0.0826290862278435
  0.5561454609652854  0.2211867780641830  0.1597350414077420
  0.5004658846844584  0.1660687603513471  0.2354222718739357
  0.4446593129827419  0.1108263226331611  0.3115482179150010
  0.3889190737702164  0.3883388759076168  0.1598726916267790
  0.3335051355742183  0.3331234441746143  0.2352161371397021
  0.4444343962616997  0.4446053415369338  0.0830926518969239
  0.2779862133253525  0.6110271074460122  0.0831053289353015
  0.2216653736385345  0.5556005124698601  0.1599010551941716
  0.1109070479733047  0.7782124423259040  0.0826206960664650
  0.6669430422446334  0.9995339913761964  0.2352110742093792
  0.7778456722060630  0.4445236260331866  0.3115103138607080
  0.1108315322862639  0.4445008751346728  0.3115180161725801
  0.0552650774386361  0.3885176321221844  0.3880032091940034
  0.0001212265760900  0.3327608965907762  0.4634788891575655
  0.1662726598577276  0.1666216521343537  0.4635309810865614
  0.1104317850096607  0.1120778824532529  0.5408192863830812
  0.5557124130261633  0.8884592785737594  0.3878933517206483
  0.2216964118014804  0.5543875049757274  0.3878844564897775
  0.2219476940428627  0.2217652527760006  0.3879948459137957
  0.3280406287357429  0.6769924833321674  0.4651548883472973
  0.3331087993215030  0.0006334523424210  0.4636073189047326
  0.4473260529025614  0.4383560250068639  0.5427655734041729
  0.1109115845338448  0.4444547678634948  0.0828930445535796
  0.1110431756822991  0.2777741920961678  0.0830558924284994
  0.0555993227496698  0.2222533221705971  0.1604054095465745
  0.0001758557060679  0.1668702387299659  0.2360982708802526
  0.1665281784364434  0.0003419387913480  0.2355914113057511
  0.2217500302316557  0.0560066993578377  0.1603455262244766
  0.2776042464213598  0.1112297014072243  0.0830219740700975
  0.3888186269239751  0.0556038905353475  0.1599711698130088
  0.3337179712715112 -0.0001445883928380  0.2356039918046465
  0.1664331368590560  0.1668182856539563  0.2360619942097016
  0.1110396826994701  0.1112458320247298  0.3119287180865882
  0.0553697508627657  0.0559055675520454  0.3880078949253494
  0.9994273869172560  0.0006368005344688  0.4636510787359313
  0.2778179869994840  0.2776103985266971  0.0828914368343842
  0.2217692745986955  0.2222917293533378  0.1603342979750834
  0.0556086784323526  0.3884519572394843  0.1603645518690565
  0.0001597965135647  0.3330946165948830  0.2360870416492427
  0.4446101050106416  0.1108264960573316  0.0825461249351149
  0.1110103896394257  0.1112735057595988  0.0830683485363481
  0.0556164745767315  0.0560030671165321  0.1603968278903859
 -0.0002119794820693 -0.0001130682913562  0.2356307094659581
  0.9442521224439195  0.9438883501685107  0.5407510944180066
  0.3887957158670107  0.5553775781973965  0.4461407081492278
  0.3888005597498195  0.5552705097509175  0.5654637024072124
 
  0.00000000E+00  0.00000000E+00  0.00000000E+00
  0.00000000E+00  0.00000000E+00  0.00000000E+00
  0.00000000E+00  0.00000000E+00  0.00000000E+00
  0.00000000E+00  0.00000000E+00  0.00000000E+00
  0.00000000E+00  0.00000000E+00  0.00000000E+00
  0.00000000E+00  0.00000000E+00  0.00000000E+00
  0.00000000E+00  0.00000000E+00  0.00000000E+00
  0.00000000E+00  0.00000000E+00  0.00000000E+00
  0.00000000E+00  0.00000000E+00  0.00000000E+00
  0.00000000E+00  0.00000000E+00  0.00000000E+00
  0.00000000E+00  0.00000000E+00  0.00000000E+00
  0.00000000E+00  0.00000000E+00  0.00000000E+00
  0.00000000E+00  0.00000000E+00  0.00000000E+00
  0.00000000E+00  0.00000000E+00  0.00000000E+00
  0.00000000E+00  0.00000000E+00  0.00000000E+00
  0.00000000E+00  0.00000000E+00  0.00000000E+00
  0.00000000E+00  0.00000000E+00  0.00000000E+00
  0.00000000E+00  0.00000000E+00  0.00000000E+00
  0.00000000E+00  0.00000000E+00  0.00000000E+00
  0.00000000E+00  0.00000000E+00  0.00000000E+00
  0.00000000E+00  0.00000000E+00  0.00000000E+00
  0.00000000E+00  0.00000000E+00  0.00000000E+00
  0.00000000E+00  0.00000000E+00  0.00000000E+00
  0.00000000E+00  0.00000000E+00  0.00000000E+00
  0.00000000E+00  0.00000000E+00  0.00000000E+00
  0.00000000E+00  0.00000000E+00  0.00000000E+00
  0.00000000E+00  0.00000000E+00  0.00000000E+00
  0.00000000E+00  0.00000000E+00  0.00000000E+00
  0.00000000E+00  0.00000000E+00  0.00000000E+00
  0.00000000E+00  0.00000000E+00  0.00000000E+00
  0.00000000E+00  0.00000000E+00  0.00000000E+00
  0.00000000E+00  0.00000000E+00  0.00000000E+00
  0.00000000E+00  0.00000000E+00  0.00000000E+00
  0.00000000E+00  0.00000000E+00  0.00000000E+00
  0.00000000E+00  0.00000000E+00  0.00000000E+00
  0.00000000E+00  0.00000000E+00  0.00000000E+00
  0.00000000E+00  0.00000000E+00  0.00000000E+00
  0.00000000E+00  0.00000000E+00  0.00000000E+00
  0.00000000E+00  0.00000000E+00  0.00000000E+00
  0.00000000E+00  0.00000000E+00  0.00000000E+00
  0.00000000E+00  0.00000000E+00  0.00000000E+00
  0.00000000E+00  0.00000000E+00  0.00000000E+00
  0.00000000E+00  0.00000000E+00  0.00000000E+00
  0.00000000E+00  0.00000000E+00  0.00000000E+00
  0.00000000E+00  0.00000000E+00  0.00000000E+00
  0.00000000E+00  0.00000000E+00  0.00000000E+00
  0.00000000E+00  0.00000000E+00  0.00000000E+00
  0.00000000E+00  0.00000000E+00  0.00000000E+00
  0.00000000E+00  0.00000000E+00  0.00000000E+00
  0.00000000E+00  0.00000000E+00  0.00000000E+00
  0.00000000E+00  0.00000000E+00  0.00000000E+00
  0.00000000E+00  0.00000000E+00  0.00000000E+00
  0.00000000E+00  0.00000000E+00  0.00000000E+00
  0.00000000E+00  0.00000000E+00  0.00000000E+00
  0.00000000E+00  0.00000000E+00  0.00000000E+00
  0.00000000E+00  0.00000000E+00  0.00000000E+00
  0.00000000E+00  0.00000000E+00  0.00000000E+00
  0.00000000E+00  0.00000000E+00  0.00000000E+00
  0.00000000E+00  0.00000000E+00  0.00000000E+00
  0.00000000E+00  0.00000000E+00  0.00000000E+00
  0.00000000E+00  0.00000000E+00  0.00000000E+00
  0.00000000E+00  0.00000000E+00  0.00000000E+00
  0.00000000E+00  0.00000000E+00  0.00000000E+00
  0.00000000E+00  0.00000000E+00  0.00000000E+00
  0.00000000E+00  0.00000000E+00  0.00000000E+00
  0.00000000E+00  0.00000000E+00  0.00000000E+00
  0.00000000E+00  0.00000000E+00  0.00000000E+00
  0.00000000E+00  0.00000000E+00  0.00000000E+00
  0.00000000E+00  0.00000000E+00  0.00000000E+00
  0.00000000E+00  0.00000000E+00  0.00000000E+00
  0.00000000E+00  0.00000000E+00  0.00000000E+00
  0.00000000E+00  0.00000000E+00  0.00000000E+00
  0.00000000E+00  0.00000000E+00  0.00000000E+00
  0.00000000E+00  0.00000000E+00  0.00000000E+00
  0.00000000E+00  0.00000000E+00  0.00000000E+00
  0.00000000E+00  0.00000000E+00  0.00000000E+00
  0.00000000E+00  0.00000000E+00  0.00000000E+00
  0.00000000E+00  0.00000000E+00  0.00000000E+00
  0.00000000E+00  0.00000000E+00  0.00000000E+00
  0.00000000E+00  0.00000000E+00  0.00000000E+00
  0.00000000E+00  0.00000000E+00  0.00000000E+00
  0.00000000E+00  0.00000000E+00  0.00000000E+00
  0.00000000E+00  0.00000000E+00  0.00000000E+00
  0.00000000E+00  0.00000000E+00  0.00000000E+00
  0.00000000E+00  0.00000000E+00  0.00000000E+00
  0.00000000E+00  0.00000000E+00  0.00000000E+00
  0.00000000E+00  0.00000000E+00  0.00000000E+00
  0.00000000E+00  0.00000000E+00  0.00000000E+00
  0.00000000E+00  0.00000000E+00  0.00000000E+00
  0.00000000E+00  0.00000000E+00  0.00000000E+00
  0.00000000E+00  0.00000000E+00  0.00000000E+00
  0.00000000E+00  0.00000000E+00  0.00000000E+00
  0.00000000E+00  0.00000000E+00  0.00000000E+00
  0.00000000E+00  0.00000000E+00  0.00000000E+00
  0.00000000E+00  0.00000000E+00  0.00000000E+00
  0.00000000E+00  0.00000000E+00  0.00000000E+00
  0.00000000E+00  0.00000000E+00  0.00000000E+00
  0.00000000E+00  0.00000000E+00  0.00000000E+00
  0.00000000E+00  0.00000000E+00  0.00000000E+00
  0.00000000E+00  0.00000000E+00  0.00000000E+00
  0.00000000E+00  0.00000000E+00  0.00000000E+00
  0.00000000E+00  0.00000000E+00  0.00000000E+00
  0.00000000E+00  0.00000000E+00  0.00000000E+00
  0.00000000E+00  0.00000000E+00  0.00000000E+00
  0.00000000E+00  0.00000000E+00  0.00000000E+00
  0.00000000E+00  0.00000000E+00  0.00000000E+00
  0.00000000E+00  0.00000000E+00  0.00000000E+00
  0.00000000E+00  0.00000000E+00  0.00000000E+00
  0.00000000E+00  0.00000000E+00  0.00000000E+00
  0.00000000E+00  0.00000000E+00  0.00000000E+00
  0.00000000E+00  0.00000000E+00  0.00000000E+00
  0.00000000E+00  0.00000000E+00  0.00000000E+00
  0.00000000E+00  0.00000000E+00  0.00000000E+00
  0.00000000E+00  0.00000000E+00  0.00000000E+00
  0.00000000E+00  0.00000000E+00  0.00000000E+00
  0.00000000E+00  0.00000000E+00  0.00000000E+00
  0.00000000E+00  0.00000000E+00  0.00000000E+00
  0.00000000E+00  0.00000000E+00  0.00000000E+00
  0.00000000E+00  0.00000000E+00  0.00000000E+00
  0.00000000E+00  0.00000000E+00  0.00000000E+00
  0.00000000E+00  0.00000000E+00  0.00000000E+00
  0.00000000E+00  0.00000000E+00  0.00000000E+00
  0.00000000E+00  0.00000000E+00  0.00000000E+00
  0.00000000E+00  0.00000000E+00  0.00000000E+00
  0.00000000E+00  0.00000000E+00  0.00000000E+00
  0.00000000E+00  0.00000000E+00  0.00000000E+00
  0.00000000E+00  0.00000000E+00  0.00000000E+00
  0.00000000E+00  0.00000000E+00  0.00000000E+00
  0.00000000E+00  0.00000000E+00  0.00000000E+00
  0.00000000E+00  0.00000000E+00  0.00000000E+00
  0.00000000E+00  0.00000000E+00  0.00000000E+00
  0.00000000E+00  0.00000000E+00  0.00000000E+00
  0.00000000E+00  0.00000000E+00  0.00000000E+00
  0.00000000E+00  0.00000000E+00  0.00000000E+00
  0.00000000E+00  0.00000000E+00  0.00000000E+00
  0.00000000E+00  0.00000000E+00  0.00000000E+00
  0.00000000E+00  0.00000000E+00  0.00000000E+00
  0.00000000E+00  0.00000000E+00  0.00000000E+00
  0.00000000E+00  0.00000000E+00  0.00000000E+00
  0.00000000E+00  0.00000000E+00  0.00000000E+00
  0.00000000E+00  0.00000000E+00  0.00000000E+00
  0.00000000E+00  0.00000000E+00  0.00000000E+00
  0.00000000E+00  0.00000000E+00  0.00000000E+00
  0.00000000E+00  0.00000000E+00  0.00000000E+00
  0.00000000E+00  0.00000000E+00  0.00000000E+00
  0.00000000E+00  0.00000000E+00  0.00000000E+00
  0.00000000E+00  0.00000000E+00  0.00000000E+00
  0.00000000E+00  0.00000000E+00  0.00000000E+00
  0.00000000E+00  0.00000000E+00  0.00000000E+00
  0.00000000E+00  0.00000000E+00  0.00000000E+00
  0.00000000E+00  0.00000000E+00  0.00000000E+00
  0.00000000E+00  0.00000000E+00  0.00000000E+00
  0.00000000E+00  0.00000000E+00  0.00000000E+00
  0.00000000E+00  0.00000000E+00  0.00000000E+00
  0.00000000E+00  0.00000000E+00  0.00000000E+00
  0.00000000E+00  0.00000000E+00  0.00000000E+00
  0.00000000E+00  0.00000000E+00  0.00000000E+00
  0.00000000E+00  0.00000000E+00  0.00000000E+00
  0.00000000E+00  0.00000000E+00  0.00000000E+00
  0.00000000E+00  0.00000000E+00  0.00000000E+00
  0.00000000E+00  0.00000000E+00  0.00000000E+00
  0.00000000E+00  0.00000000E+00  0.00000000E+00
  0.00000000E+00  0.00000000E+00  0.00000000E+00
  0.00000000E+00  0.00000000E+00  0.00000000E+00
  0.00000000E+00  0.00000000E+00  0.00000000E+00
  0.00000000E+00  0.00000000E+00  0.00000000E+00
  0.00000000E+00  0.00000000E+00  0.00000000E+00
  0.00000000E+00  0.00000000E+00  0.00000000E+00
  0.00000000E+00  0.00000000E+00  0.00000000E+00
  0.00000000E+00  0.00000000E+00  0.00000000E+00
  0.00000000E+00  0.00000000E+00  0.00000000E+00
  0.00000000E+00  0.00000000E+00  0.00000000E+00
  0.00000000E+00  0.00000000E+00  0.00000000E+00
  0.00000000E+00  0.00000000E+00  0.00000000E+00
  0.00000000E+00  0.00000000E+00  0.00000000E+00
  0.00000000E+00  0.00000000E+00  0.00000000E+00
  0.00000000E+00  0.00000000E+00  0.00000000E+00
  0.00000000E+00  0.00000000E+00  0.00000000E+00
  0.00000000E+00  0.00000000E+00  0.00000000E+00
  0.00000000E+00  0.00000000E+00  0.00000000E+00
  0.00000000E+00  0.00000000E+00  0.00000000E+00
  0.00000000E+00  0.00000000E+00  0.00000000E+00
  0.00000000E+00  0.00000000E+00  0.00000000E+00
  0.00000000E+00  0.00000000E+00  0.00000000E+00
  0.00000000E+00  0.00000000E+00  0.00000000E+00
  0.00000000E+00  0.00000000E+00  0.00000000E+00
  0.00000000E+00  0.00000000E+00  0.00000000E+00
  0.00000000E+00  0.00000000E+00  0.00000000E+00
  0.00000000E+00  0.00000000E+00  0.00000000E+00
  0.00000000E+00  0.00000000E+00  0.00000000E+00
  0.00000000E+00  0.00000000E+00  0.00000000E+00
  0.00000000E+00  0.00000000E+00  0.00000000E+00
  0.00000000E+00  0.00000000E+00  0.00000000E+00
  0.00000000E+00  0.00000000E+00  0.00000000E+00
  0.00000000E+00  0.00000000E+00  0.00000000E+00
  0.00000000E+00  0.00000000E+00  0.00000000E+00
  0.00000000E+00  0.00000000E+00  0.00000000E+00
  0.00000000E+00  0.00000000E+00  0.00000000E+00
  0.00000000E+00  0.00000000E+00  0.00000000E+00
  0.00000000E+00  0.00000000E+00  0.00000000E+00
  0.00000000E+00  0.00000000E+00  0.00000000E+00
  0.00000000E+00  0.00000000E+00  0.00000000E+00
  0.00000000E+00  0.00000000E+00  0.00000000E+00
  0.00000000E+00  0.00000000E+00  0.00000000E+00
  0.00000000E+00  0.00000000E+00  0.00000000E+00
  0.00000000E+00  0.00000000E+00  0.00000000E+00
  0.00000000E+00  0.00000000E+00  0.00000000E+00
  0.00000000E+00  0.00000000E+00  0.00000000E+00
  0.00000000E+00  0.00000000E+00  0.00000000E+00
  0.00000000E+00  0.00000000E+00  0.00000000E+00
  0.00000000E+00  0.00000000E+00  0.00000000E+00
  0.00000000E+00  0.00000000E+00  0.00000000E+00
  0.00000000E+00  0.00000000E+00  0.00000000E+00
  0.00000000E+00  0.00000000E+00  0.00000000E+00
  0.00000000E+00  0.00000000E+00  0.00000000E+00
  0.00000000E+00  0.00000000E+00  0.00000000E+00
  0.00000000E+00  0.00000000E+00  0.00000000E+00
  0.00000000E+00  0.00000000E+00  0.00000000E+00
  0.00000000E+00  0.00000000E+00  0.00000000E+00
  0.00000000E+00  0.00000000E+00  0.00000000E+00
  0.00000000E+00  0.00000000E+00  0.00000000E+00
  0.00000000E+00  0.00000000E+00  0.00000000E+00
  0.00000000E+00  0.00000000E+00  0.00000000E+00
  0.00000000E+00  0.00000000E+00  0.00000000E+00
  0.00000000E+00  0.00000000E+00  0.00000000E+00
  0.00000000E+00  0.00000000E+00  0.00000000E+00
  0.00000000E+00  0.00000000E+00  0.00000000E+00
  0.00000000E+00  0.00000000E+00  0.00000000E+00
  0.00000000E+00  0.00000000E+00  0.00000000E+00
  0.00000000E+00  0.00000000E+00  0.00000000E+00
  0.00000000E+00  0.00000000E+00  0.00000000E+00
  0.00000000E+00  0.00000000E+00  0.00000000E+00
  0.00000000E+00  0.00000000E+00  0.00000000E+00
  0.00000000E+00  0.00000000E+00  0.00000000E+00
  0.00000000E+00  0.00000000E+00  0.00000000E+00
  0.00000000E+00  0.00000000E+00  0.00000000E+00
  0.00000000E+00  0.00000000E+00  0.00000000E+00
  0.00000000E+00  0.00000000E+00  0.00000000E+00
  0.00000000E+00  0.00000000E+00  0.00000000E+00
  0.00000000E+00  0.00000000E+00  0.00000000E+00
  0.00000000E+00  0.00000000E+00  0.00000000E+00
  0.00000000E+00  0.00000000E+00  0.00000000E+00
  0.00000000E+00  0.00000000E+00  0.00000000E+00
  0.00000000E+00  0.00000000E+00  0.00000000E+00
  0.00000000E+00  0.00000000E+00  0.00000000E+00
  0.00000000E+00  0.00000000E+00  0.00000000E+00
  0.00000000E+00  0.00000000E+00  0.00000000E+00
  0.00000000E+00  0.00000000E+00  0.00000000E+00
  0.00000000E+00  0.00000000E+00  0.00000000E+00
  0.00000000E+00  0.00000000E+00  0.00000000E+00
  0.00000000E+00  0.00000000E+00  0.00000000E+00
  0.00000000E+00  0.00000000E+00  0.00000000E+00
  0.00000000E+00  0.00000000E+00  0.00000000E+00
  0.00000000E+00  0.00000000E+00  0.00000000E+00
