New structure                           
   1.00000000000000     
     0.0000000000000000  -17.1805734624895479    0.0000000000000000
     0.0000000000000000   -8.5902867312447739  -14.8788130701007191
    30.0000000000000000    0.0000000000000000    0.0000000000000000
   Al  O
   252 2
Cartesian
 2.362040      -11.45372      -6.612810
 2.362040      -14.31714      -11.57241
 2.362040      -8.590290      -1.653200
 2.362040      -17.18057      -6.612810
 2.362040      -20.04400      -11.57241
 2.362040      -14.31714      -1.653200
 2.362040      -5.726860      -6.612810
 2.362040      -8.590290      -11.57241
 2.362040      -2.863430      -1.653200
 4.710780      -14.31714      -8.266010
 4.710780      -17.18057      -13.22561
 4.710780      -11.45372      -3.306400
 4.710780      -20.04400      -8.266010
 4.710780      -22.90743      -13.22561
 4.710780      -17.18057      -3.306400
 4.710780      -8.590290      -8.266010
 4.710780      -11.45372      -13.22561
 4.710780      -5.726860      -3.306400
 7.012720      -17.18057      -9.919210
 7.012720      -11.45372      0.0000000E+00
 7.012720      -14.31714      -4.959600
 7.012720      -5.726860      -9.919210
 7.012720      0.0000000E+00  0.0000000E+00
 7.012720      -2.863430      -4.959600
 7.012720      -11.45372      -9.919210
 7.012720      -5.726860      0.0000000E+00
 7.012720      -8.590290      -4.959600
 9.351920      -20.04400      -11.57241
 9.351920      -14.31714      -1.653200
 9.351920      -17.18057      -6.612810
 9.351920      -8.590290      -11.57241
 9.351920      -2.863430      -1.653200
 9.351920      -5.726860      -6.612810
 9.351920      -14.31714      -11.57241
 9.351920      -8.590290      -1.653200
 9.351920      -11.45372      -6.612810
 11.69112      -22.90743      -13.22561
 11.69112      -17.18057      -3.306400
 11.69112      -20.04400      -8.266010
 11.69112      -11.45372      -13.22561
 11.69112      -5.726860      -3.306400
 11.69112      -8.590290      -8.266010
 11.69112      -17.18057      -13.22561
 11.69112      -11.45372      -3.306400
 11.69112      -14.31714      -8.266010
 13.99306      0.0000000E+00  0.0000000E+00
 13.99306      -2.863430      -4.959600
 13.99306      -5.726860      -9.919210
 13.99306      -5.726860      0.0000000E+00
 13.99306      -8.590290      -4.959600
 13.99306      -11.45372      -9.919210
 13.99306      -11.45372      0.0000000E+00
 13.99306      -14.31714      -4.959600
 13.99306      -17.18057      -9.919210
 16.34180      -2.863430      -1.653200
 16.34180      -5.726860      -6.612810
 16.34180      -8.590290      -11.57241
 16.34180      -8.590290      -1.653200
 16.34180      -11.45372      -6.612810
 16.34180      -14.31714      -11.57241
 16.34180      -14.31714      -1.653200
 16.34180      -17.18057      -6.612810
 16.34180      -20.04400      -11.57241
 2.362040      -7.158570      -4.133000
 2.362040      -10.02200      -9.092610
 2.362040      -12.88543      -14.05221
 2.362040      -12.88543      -4.133000
 2.362040      -15.74886      -9.092610
 2.362040      -18.61229      -14.05221
 2.362040      -18.61229      -4.133000
 2.362040      -21.47572      -9.092610
 2.362040      -24.33915      -14.05221
 4.710780      -10.02200      -5.786210
 4.710780      -12.88543      -10.74581
 4.710780      -7.158570     -0.8266000
 4.710780      -15.74886      -5.786210
 4.710780      -18.61229      -10.74581
 4.710780      -12.88543     -0.8266000
 4.710780      -4.295140      -5.786210
 4.710780      -7.158570      -10.74581
 4.710780      -1.431710     -0.8266000
 7.012720      -12.88543      -7.439410
 7.012720      -15.74886      -12.39901
 7.012720      -10.02200      -2.479800
 7.012720      -18.61229      -7.439410
 7.012720      -21.47572      -12.39901
 7.012720      -15.74886      -2.479800
 7.012720      -7.158570      -7.439410
 7.012720      -10.02200      -12.39901
 7.012720      -4.295140      -2.479800
 9.351920      -15.74886      -9.092610
 9.351920      -18.61229      -14.05221
 9.351920      -12.88543      -4.133000
 9.351920      -21.47572      -9.092610
 9.351920      -24.33915      -14.05221
 9.351920      -18.61229      -4.133000
 9.351920      -10.02200      -9.092610
 9.351920      -12.88543      -14.05221
 9.351920      -7.158570      -4.133000
 11.69112      -18.61229      -10.74581
 11.69112      -12.88543     -0.8266000
 11.69112      -15.74886      -5.786210
 11.69112      -7.158570      -10.74581
 11.69112      -1.431710     -0.8266000
 11.69112      -4.295140      -5.786210
 11.69112      -12.88543      -10.74581
 11.69112      -7.158570     -0.8266000
 11.69112      -10.02200      -5.786210
 13.99306      -21.47572      -12.39901
 13.99306      -15.74886      -2.479800
 13.99306      -18.61229      -7.439410
 13.99306      -10.02200      -12.39901
 13.99306      -4.295140      -2.479800
 13.99306      -7.158570      -7.439410
 13.99306      -15.74886      -12.39901
 13.99306      -10.02200      -2.479800
 13.99306      -12.88543      -7.439410
 16.34180      -24.33915      -14.05221
 16.34180      -18.61229      -4.133000
 16.34180      -21.47572      -9.092610
 16.34180      -12.88543      -14.05221
 16.34180      -7.158570      -4.133000
 16.34180      -10.02200      -9.092610
 16.34180      -18.61229      -14.05221
 16.34180      -12.88543      -4.133000
 16.34180      -15.74886      -9.092610
 2.362040      -8.590290      -6.612810
 2.362040      -11.45372      -11.57241
 2.362040      -5.726860      -1.653200
 2.362040      -14.31714      -6.612810
 2.362040      -17.18057      -11.57241
 2.362040      -11.45372      -1.653200
 2.362040      -20.04400      -6.612810
 2.362040      -22.90743      -11.57241
 2.362040      -17.18057      -1.653200
 4.710780      -11.45372      -8.266010
 4.710780      -14.31714      -13.22561
 4.710780      -8.590290      -3.306400
 4.710780      -17.18057      -8.266010
 4.710780      -20.04400      -13.22561
 4.710780      -14.31714      -3.306400
 4.710780      -5.726860      -8.266010
 4.710780      -8.590290      -13.22561
 4.710780      -2.863430      -3.306400
 7.012720      -14.31714      -9.919210
 7.012720      -8.590290      0.0000000E+00
 7.012720      -11.45372      -4.959600
 7.012720      -20.04400      -9.919210
 7.012720      -14.31714      0.0000000E+00
 7.012720      -17.18057      -4.959600
 7.012720      -8.590290      -9.919210
 7.012720      -2.863430      0.0000000E+00
 7.012720      -5.726860      -4.959600
 9.351920      -17.18057      -11.57241
 9.351920      -11.45372      -1.653200
 9.351920      -14.31714      -6.612810
 9.351920      -22.90743      -11.57241
 9.351920      -17.18057      -1.653200
 9.351920      -20.04400      -6.612810
 9.351920      -11.45372      -11.57241
 9.351920      -5.726860      -1.653200
 9.351920      -8.590290      -6.612810
 11.69112      -20.04400      -13.22561
 11.69112      -14.31714      -3.306400
 11.69112      -17.18057      -8.266010
 11.69112      -8.590290      -13.22561
 11.69112      -2.863430      -3.306400
 11.69112      -5.726860      -8.266010
 11.69112      -14.31714      -13.22561
 11.69112      -8.590290      -3.306400
 11.69112      -11.45372      -8.266010
 13.99306      -14.31714      0.0000000E+00
 13.99306      -17.18057      -4.959600
 13.99306      -20.04400      -9.919210
 13.99306      -2.863430      0.0000000E+00
 13.99306      -5.726860      -4.959600
 13.99306      -8.590290      -9.919210
 13.99306      -8.590290      0.0000000E+00
 13.99306      -11.45372      -4.959600
 13.99306      -14.31714      -9.919210
 16.34180      -17.18057      -1.653200
 16.34180      -20.04400      -6.612810
 16.34180      -22.90743      -11.57241
 16.34180      -5.726860      -1.653200
 16.34180      -8.590290      -6.612810
 16.34180      -11.45372      -11.57241
 16.34180      -11.45372      -1.653200
 16.34180      -14.31714      -6.612810
 16.34180      -17.18057      -11.57241
 2.362040      -10.02200      -4.133000
 2.362040      -12.88543      -9.092610
 2.362040      -15.74886      -14.05221
 2.362040      -15.74886      -4.133000
 2.362040      -18.61229      -9.092610
 2.362040      -21.47572      -14.05221
 2.362040      -4.295140      -4.133000
 2.362040      -7.158570      -9.092610
 2.362040      -10.02200      -14.05221
 4.710780      -12.88543      -5.786210
 4.710780      -15.74886      -10.74581
 4.710780      -10.02200     -0.8266000
 4.710780      -18.61229      -5.786210
 4.710780      -21.47572      -10.74581
 4.710780      -15.74886     -0.8266000
 4.710780      -7.158570      -5.786210
 4.710780      -10.02200      -10.74581
 4.710780      -4.295140     -0.8266000
 7.012720      -15.74886      -7.439410
 7.012720      -18.61229      -12.39901
 7.012720      -12.88543      -2.479800
 7.012720      -4.295140      -7.439410
 7.012720      -7.158570      -12.39901
 7.012720      -1.431710      -2.479800
 7.012720      -10.02200      -7.439410
 7.012720      -12.88543      -12.39901
 7.012720      -7.158570      -2.479800
 9.351920      -18.61229      -9.092610
 9.351920      -21.47572      -14.05221
 9.351920      -15.74886      -4.133000
 9.351920      -7.158570      -9.092610
 9.351920      -10.02200      -14.05221
 9.351920      -4.295140      -4.133000
 9.351920      -12.88543      -9.092610
 9.351920      -15.74886      -14.05221
 9.351920      -10.02200      -4.133000
 11.69112      -21.47572      -10.74581
 11.69112      -15.74886     -0.8266000
 11.69112      -18.61229      -5.786210
 11.69112      -10.02200      -10.74581
 11.69112      -4.295140     -0.8266000
 11.69112      -7.158570      -5.786210
 11.69112      -15.74886      -10.74581
 11.69112      -10.02200     -0.8266000
 11.69112      -12.88543      -5.786210
 13.99306      -7.158570      -12.39901
 13.99306      -1.431710      -2.479800
 13.99306      -4.295140      -7.439410
 13.99306      -12.88543      -12.39901
 13.99306      -7.158570      -2.479800
 13.99306      -10.02200      -7.439410
 13.99306      -18.61229      -12.39901
 13.99306      -12.88543      -2.479800
 13.99306      -15.74886      -7.439410
 16.34180      -10.02200      -14.05221
 16.34180      -4.295140      -4.133000
 16.34180      -7.158570      -9.092610
 16.34180      -15.74886      -14.05221
 16.34180      -10.02200      -4.133000
 16.34180      -12.88543      -9.092610
 16.34180      -21.47572      -14.05221
 16.34180      -15.74886      -4.133000
 16.34180      -18.61229      -9.092610
  17.54      -10.0220000000000       -7.24
  17.54      -10.022003333333332 -5.986
