New structure                           
    1.000000000000000     
    14.2799999999999994    0.0000000000000000    0.0000000000000000
     0.0000000000000000   14.2799999999999994    0.0000000000000000
     0.0000000000000000    0.0000000000000000   14.2799999999999994
   Ni   O 
   256     1
Direct
 -0.0089482291305762  0.0000000000000000 -0.0000000000000000
 -0.0024636224712549  0.1274636224712549  0.1274636224712549
  0.1250000000000000  0.0000000000000000  0.1339482291305761
  0.1250000000000000  0.1339482291305761 -0.0000000000000000
 -0.0015704811621204  0.0000000000000000  0.2517474093999837
 -0.0003953697311789  0.1253953697311789  0.3754671937813244
  0.1250000000000000  0.0000000000000000  0.3751793245689272
  0.1250000000000000  0.1265704811621204  0.2517474093999837
 -0.0001659543292681  0.0000000000000000  0.5000000000000000
 -0.0003953697311789  0.1253953697311789  0.6245328062186757
  0.1250000000000000  0.0000000000000000  0.6248206754310727
  0.1250000000000000  0.1251659543292681  0.5000000000000000
 -0.0015704811621204  0.0000000000000000  0.7482525906000164
 -0.0024636224712549  0.1274636224712549  0.8725363775287452
  0.1250000000000000  0.0000000000000000  0.8660517708694235
  0.1250000000000000  0.1265704811621204  0.7482525906000164
 -0.0015704811621204  0.2517474093999837 -0.0000000000000000
 -0.0003953697311789  0.3754671937813244  0.1253953697311789
  0.1250000000000000  0.2517474093999837  0.1265704811621204
  0.1250000000000000  0.3751793245689272 -0.0000000000000000
 -0.0004791878908083  0.2509478807604806  0.2509478807604806
 -0.0002674169573348  0.3753515930765389  0.3753515930765389
  0.1250000000000000  0.2507226663674801  0.3756517620584839
  0.1250000000000000  0.3756517620584839  0.2507226663674801
 -0.0002185083389993  0.2503182438736822  0.5000000000000000
 -0.0002674169573348  0.3753515930765389  0.6246484069234608
  0.1250000000000000  0.2507226663674801  0.6243482379415161
  0.1250000000000000  0.3753958314095114  0.5000000000000000
 -0.0004791878908083  0.2509478807604806  0.7490521192395195
 -0.0003953697311789  0.3754671937813244  0.8746046302688211
  0.1250000000000000  0.2517474093999837  0.8734295188378798
  0.1250000000000000  0.3756517620584839  0.7492773336325201
 -0.0001659543292681  0.5000000000000000 -0.0000000000000000
 -0.0003953697311789  0.6245328062186757  0.1253953697311789
  0.1250000000000000  0.5000000000000000  0.1251659543292681
  0.1250000000000000  0.6248206754310727 -0.0000000000000000
 -0.0002185083389993  0.5000000000000000  0.2503182438736822
 -0.0002674169573348  0.6246484069234608  0.3753515930765389
  0.1250000000000000  0.5000000000000000  0.3753958314095114
  0.1250000000000000  0.6243482379415161  0.2507226663674801
 -0.0002458387664660  0.5000000000000000  0.5000000000000000
 -0.0002674169573348  0.6246484069234608  0.6246484069234608
  0.1250000000000000  0.5000000000000000  0.6246041685904884
  0.1250000000000000  0.6246041685904884  0.5000000000000000
 -0.0002185083389993  0.5000000000000000  0.7496817561263179
 -0.0003953697311789  0.6245328062186757  0.8746046302688211
  0.1250000000000000  0.5000000000000000  0.8748340456707322
  0.1250000000000000  0.6243482379415161  0.7492773336325201
 -0.0015704811621204  0.7482525906000164 -0.0000000000000000
 -0.0024636224712549  0.8725363775287452  0.1274636224712549
  0.1250000000000000  0.7482525906000164  0.1265704811621204
  0.1250000000000000  0.8660517708694235 -0.0000000000000000
 -0.0004791878908083  0.7490521192395195  0.2509478807604806
 -0.0003953697311789  0.8746046302688211  0.3754671937813244
  0.1250000000000000  0.7492773336325201  0.3756517620584839
  0.1250000000000000  0.8734295188378798  0.2517474093999837
 -0.0002185083389993  0.7496817561263179  0.5000000000000000
 -0.0003953697311789  0.8746046302688211  0.6245328062186757
  0.1250000000000000  0.7492773336325201  0.6243482379415161
  0.1250000000000000  0.8748340456707322  0.5000000000000000
 -0.0004791878908083  0.7490521192395195  0.7490521192395195
 -0.0024636224712549  0.8725363775287452  0.8725363775287452
  0.1250000000000000  0.7482525906000164  0.8734295188378798
  0.1250000000000000  0.8734295188378798  0.7482525906000164
  0.2589482291305761  0.0000000000000000 -0.0000000000000000
  0.2524636224712548  0.1274636224712549  0.1274636224712549
  0.3767474093999837  0.0000000000000000  0.1265704811621204
  0.3767474093999837  0.1265704811621204 -0.0000000000000000
  0.2515704811621203  0.0000000000000000  0.2517474093999837
  0.2503953697311789  0.1253953697311789  0.3754671937813244
  0.3757226663674801  0.0000000000000000  0.3756517620584839
  0.3759478807604807  0.1254791878908083  0.2509478807604806
  0.2501659543292683  0.0000000000000000  0.5000000000000000
  0.2503953697311789  0.1253953697311789  0.6245328062186757
  0.3757226663674801  0.0000000000000000  0.6243482379415161
  0.3753182438736821  0.1252185083389992  0.5000000000000000
  0.2515704811621203  0.0000000000000000  0.7482525906000164
  0.2524636224712548  0.1274636224712549  0.8725363775287452
  0.3767474093999837  0.0000000000000000  0.8734295188378798
  0.3759478807604807  0.1254791878908083  0.7490521192395195
  0.2515704811621203  0.2517474093999837 -0.0000000000000000
  0.2503953697311789  0.3754671937813244  0.1253953697311789
  0.3759478807604807  0.2509478807604806  0.1254791878908083
  0.3757226663674801  0.3756517620584839 -0.0000000000000000
  0.2504791878908083  0.2509478807604806  0.2509478807604806
  0.2502674169573347  0.3753515930765389  0.3753515930765389
  0.3754322146310685  0.2504322146310685  0.3753946941189224
  0.3754322146310685  0.3753946941189224  0.2504322146310685
  0.2502185083389993  0.2503182438736822  0.5000000000000000
  0.2502674169573347  0.3753515930765389  0.6246484069234608
  0.3754322146310685  0.2504322146310685  0.6246053058810778
  0.3752728119213325  0.3752168769531849  0.5000000000000000
  0.2504791878908083  0.2509478807604806  0.7490521192395195
  0.2503953697311789  0.3754671937813244  0.8746046302688211
  0.3759478807604807  0.2509478807604806  0.8745208121091920
  0.3754322146310685  0.3753946941189224  0.7495677853689316
  0.2501659543292683  0.5000000000000000 -0.0000000000000000
  0.2503953697311789  0.6245328062186757  0.1253953697311789
  0.3753182438736821  0.5000000000000000  0.1252185083389992
  0.3757226663674801  0.6243482379415161 -0.0000000000000000
  0.2502185083389993  0.5000000000000000  0.2503182438736822
  0.2502674169573347  0.6246484069234608  0.3753515930765389
  0.3752728119213325  0.5000000000000000  0.3752168769531849
  0.3754322146310685  0.6246053058810778  0.2504322146310685
  0.2502458387664660  0.5000000000000000  0.5000000000000000
  0.2502674169573347  0.6246484069234608  0.6246484069234608
  0.3752728119213325  0.5000000000000000  0.6247831230468152
  0.3752728119213325  0.6247831230468152  0.5000000000000000
  0.2502185083389993  0.5000000000000000  0.7496817561263179
  0.2503953697311789  0.6245328062186757  0.8746046302688211
  0.3753182438736821  0.5000000000000000  0.8747814916610007
  0.3754322146310685  0.6246053058810778  0.7495677853689316
  0.2515704811621203  0.7482525906000164 -0.0000000000000000
  0.2524636224712548  0.8725363775287452  0.1274636224712549
  0.3759478807604807  0.7490521192395195  0.1254791878908083
  0.3767474093999837  0.8734295188378798 -0.0000000000000000
  0.2504791878908083  0.7490521192395195  0.2509478807604806
  0.2503953697311789  0.8746046302688211  0.3754671937813244
  0.3754322146310685  0.7495677853689316  0.3753946941189224
  0.3759478807604807  0.8745208121091920  0.2509478807604806
  0.2502185083389993  0.7496817561263179  0.5000000000000000
  0.2503953697311789  0.8746046302688211  0.6245328062186757
  0.3754322146310685  0.7495677853689316  0.6246053058810778
  0.3753182438736821  0.8747814916610007  0.5000000000000000
  0.2504791878908083  0.7490521192395195  0.7490521192395195
  0.2524636224712548  0.8725363775287452  0.8725363775287452
  0.3759478807604807  0.7490521192395195  0.8745208121091920
  0.3759478807604807  0.8745208121091920  0.7490521192395195
  0.5001793245689273  0.0000000000000000 -0.0000000000000000
  0.5004671937813243  0.1253953697311789  0.1253953697311789
  0.6250000000000000  0.0000000000000000  0.1251659543292681
  0.6250000000000000  0.1251659543292681 -0.0000000000000000
  0.5006517620584839  0.0000000000000000  0.2507226663674801
  0.5003515930765391  0.1252674169573349  0.3753515930765389
  0.6250000000000000  0.0000000000000000  0.3753958314095114
  0.6250000000000000  0.1252185083389992  0.2503182438736822
  0.5003958314095116  0.0000000000000000  0.5000000000000000
  0.5003515930765391  0.1252674169573349  0.6246484069234608
  0.6250000000000000  0.0000000000000000  0.6246041685904884
  0.6250000000000000  0.1252458387664660  0.5000000000000000
  0.5006517620584839  0.0000000000000000  0.7492773336325201
  0.5004671937813243  0.1253953697311789  0.8746046302688211
  0.6250000000000000  0.0000000000000000  0.8748340456707322
  0.6250000000000000  0.1252185083389992  0.7496817561263179
  0.5006517620584839  0.2507226663674801 -0.0000000000000000
  0.5003515930765391  0.3753515930765389  0.1252674169573349
  0.6250000000000000  0.2503182438736822  0.1252185083389992
  0.6250000000000000  0.3753958314095114 -0.0000000000000000
  0.5003946941189222  0.2504322146310685  0.2504322146310685
  0.5002495013062714  0.3752495013062715  0.3752495013062715
  0.6250000000000000  0.2502728119213325  0.3752168769531849
  0.6250000000000000  0.3752168769531849  0.2502728119213325
  0.5002168769531848  0.2502728119213325  0.5000000000000000
  0.5002495013062714  0.3752495013062715  0.6247504986937286
  0.6250000000000000  0.2502728119213325  0.6247831230468152
  0.6250000000000000  0.3751548983701203  0.5000000000000000
  0.5003946941189222  0.2504322146310685  0.7495677853689316
  0.5003515930765391  0.3753515930765389  0.8747325830426651
  0.6250000000000000  0.2503182438736822  0.8747814916610007
  0.6250000000000000  0.3752168769531849  0.7497271880786675
  0.5003958314095116  0.5000000000000000 -0.0000000000000000
  0.5003515930765391  0.6246484069234608  0.1252674169573349
  0.6250000000000000  0.5000000000000000  0.1252458387664660
  0.6250000000000000  0.6246041685904884 -0.0000000000000000
  0.5002168769531848  0.5000000000000000  0.2502728119213325
  0.5002495013062714  0.6247504986937286  0.3752495013062715
  0.6250000000000000  0.5000000000000000  0.3751548983701203
  0.6250000000000000  0.6247831230468152  0.2502728119213325
  0.5001548983701204  0.5000000000000000  0.5000000000000000
  0.5002495013062714  0.6247504986937286  0.6247504986937286
  0.6250000000000000  0.5000000000000000  0.6248451016298798
  0.6250000000000000  0.6248451016298798  0.5000000000000000
  0.5002168769531848  0.5000000000000000  0.7497271880786675
  0.5003515930765391  0.6246484069234608  0.8747325830426651
  0.6250000000000000  0.5000000000000000  0.8747541612335340
  0.6250000000000000  0.6247831230468152  0.7497271880786675
  0.5006517620584839  0.7492773336325201 -0.0000000000000000
  0.5004671937813243  0.8746046302688211  0.1253953697311789
  0.6250000000000000  0.7496817561263179  0.1252185083389992
  0.6250000000000000  0.8748340456707322 -0.0000000000000000
  0.5003946941189222  0.7495677853689316  0.2504322146310685
  0.5003515930765391  0.8747325830426651  0.3753515930765389
  0.6250000000000000  0.7497271880786675  0.3752168769531849
  0.6250000000000000  0.8747814916610007  0.2503182438736822
  0.5002168769531848  0.7497271880786675  0.5000000000000000
  0.5003515930765391  0.8747325830426651  0.6246484069234608
  0.6250000000000000  0.7497271880786675  0.6247831230468152
  0.6250000000000000  0.8747541612335340  0.5000000000000000
  0.5003946941189222  0.7495677853689316  0.7495677853689316
  0.5004671937813243  0.8746046302688211  0.8746046302688211
  0.6250000000000000  0.7496817561263179  0.8747814916610007
  0.6250000000000000  0.8747814916610007  0.7496817561263179
  0.7498206754310727  0.0000000000000000 -0.0000000000000000
  0.7495328062186757  0.1253953697311789  0.1253953697311789
  0.8732525906000164  0.0000000000000000  0.1265704811621204
  0.8732525906000164  0.1265704811621204 -0.0000000000000000
  0.7493482379415161  0.0000000000000000  0.2507226663674801
  0.7496484069234608  0.1252674169573349  0.3753515930765389
  0.8742773336325201  0.0000000000000000  0.3756517620584839
  0.8740521192395195  0.1254791878908083  0.2509478807604806
  0.7496041685904884  0.0000000000000000  0.5000000000000000
  0.7496484069234608  0.1252674169573349  0.6246484069234608
  0.8742773336325201  0.0000000000000000  0.6243482379415161
  0.8746817561263179  0.1252185083389992  0.5000000000000000
  0.7493482379415161  0.0000000000000000  0.7492773336325201
  0.7495328062186757  0.1253953697311789  0.8746046302688211
  0.8732525906000164  0.0000000000000000  0.8734295188378798
  0.8740521192395195  0.1254791878908083  0.7490521192395195
  0.7493482379415161  0.2507226663674801 -0.0000000000000000
  0.7496484069234608  0.3753515930765389  0.1252674169573349
  0.8740521192395195  0.2509478807604806  0.1254791878908083
  0.8742773336325201  0.3756517620584839 -0.0000000000000000
  0.7496053058810778  0.2504322146310685  0.2504322146310685
  0.7497504986937286  0.3752495013062715  0.3752495013062715
  0.8745677853689316  0.2504322146310685  0.3753946941189224
  0.8745677853689316  0.3753946941189224  0.2504322146310685
  0.7497831230468152  0.2502728119213325  0.5000000000000000
  0.7497504986937286  0.3752495013062715  0.6247504986937286
  0.8745677853689316  0.2504322146310685  0.6246053058810778
  0.8747271880786675  0.3752168769531849  0.5000000000000000
  0.7496053058810778  0.2504322146310685  0.7495677853689316
  0.7496484069234608  0.3753515930765389  0.8747325830426651
  0.8740521192395195  0.2509478807604806  0.8745208121091920
  0.8745677853689316  0.3753946941189224  0.7495677853689316
  0.7496041685904884  0.5000000000000000 -0.0000000000000000
  0.7496484069234608  0.6246484069234608  0.1252674169573349
  0.8746817561263179  0.5000000000000000  0.1252185083389992
  0.8742773336325201  0.6243482379415161 -0.0000000000000000
  0.7497831230468152  0.5000000000000000  0.2502728119213325
  0.7497504986937286  0.6247504986937286  0.3752495013062715
  0.8747271880786675  0.5000000000000000  0.3752168769531849
  0.8745677853689316  0.6246053058810778  0.2504322146310685
  0.7498451016298798  0.5000000000000000  0.5000000000000000
  0.7497504986937286  0.6247504986937286  0.6247504986937286
  0.8747271880786675  0.5000000000000000  0.6247831230468152
  0.8747271880786675  0.6247831230468152  0.5000000000000000
  0.7497831230468152  0.5000000000000000  0.7497271880786675
  0.7496484069234608  0.6246484069234608  0.8747325830426651
  0.8746817561263179  0.5000000000000000  0.8747814916610007
  0.8745677853689316  0.6246053058810778  0.7495677853689316
  0.7493482379415161  0.7492773336325201 -0.0000000000000000
  0.7495328062186757  0.8746046302688211  0.1253953697311789
  0.8740521192395195  0.7490521192395195  0.1254791878908083
  0.8732525906000164  0.8734295188378798 -0.0000000000000000
  0.7496053058810778  0.7495677853689316  0.2504322146310685
  0.7496484069234608  0.8747325830426651  0.3753515930765389
  0.8745677853689316  0.7495677853689316  0.3753946941189224
  0.8740521192395195  0.8745208121091920  0.2509478807604806
  0.7497831230468152  0.7497271880786675  0.5000000000000000
  0.7496484069234608  0.8747325830426651  0.6246484069234608
  0.8745677853689316  0.7495677853689316  0.6246053058810778
  0.8746817561263179  0.8747814916610007  0.5000000000000000
  0.7496053058810778  0.7495677853689316  0.7495677853689316
  0.7495328062186757  0.8746046302688211  0.8746046302688211
  0.8740521192395195  0.7490521192395195  0.8745208121091920
  0.8740521192395195  0.8745208121091920  0.7490521192395195
  0.1250000000000000  0.0000000000000000 -0.0000000000000000
 
  0.00000000E+00  0.00000000E+00  0.00000000E+00
  0.00000000E+00  0.00000000E+00  0.00000000E+00
  0.00000000E+00  0.00000000E+00  0.00000000E+00
  0.00000000E+00  0.00000000E+00  0.00000000E+00
  0.00000000E+00  0.00000000E+00  0.00000000E+00
  0.00000000E+00  0.00000000E+00  0.00000000E+00
  0.00000000E+00  0.00000000E+00  0.00000000E+00
  0.00000000E+00  0.00000000E+00  0.00000000E+00
  0.00000000E+00  0.00000000E+00  0.00000000E+00
  0.00000000E+00  0.00000000E+00  0.00000000E+00
  0.00000000E+00  0.00000000E+00  0.00000000E+00
  0.00000000E+00  0.00000000E+00  0.00000000E+00
  0.00000000E+00  0.00000000E+00  0.00000000E+00
  0.00000000E+00  0.00000000E+00  0.00000000E+00
  0.00000000E+00  0.00000000E+00  0.00000000E+00
  0.00000000E+00  0.00000000E+00  0.00000000E+00
  0.00000000E+00  0.00000000E+00  0.00000000E+00
  0.00000000E+00  0.00000000E+00  0.00000000E+00
  0.00000000E+00  0.00000000E+00  0.00000000E+00
  0.00000000E+00  0.00000000E+00  0.00000000E+00
  0.00000000E+00  0.00000000E+00  0.00000000E+00
  0.00000000E+00  0.00000000E+00  0.00000000E+00
  0.00000000E+00  0.00000000E+00  0.00000000E+00
  0.00000000E+00  0.00000000E+00  0.00000000E+00
  0.00000000E+00  0.00000000E+00  0.00000000E+00
  0.00000000E+00  0.00000000E+00  0.00000000E+00
  0.00000000E+00  0.00000000E+00  0.00000000E+00
  0.00000000E+00  0.00000000E+00  0.00000000E+00
  0.00000000E+00  0.00000000E+00  0.00000000E+00
  0.00000000E+00  0.00000000E+00  0.00000000E+00
  0.00000000E+00  0.00000000E+00  0.00000000E+00
  0.00000000E+00  0.00000000E+00  0.00000000E+00
  0.00000000E+00  0.00000000E+00  0.00000000E+00
  0.00000000E+00  0.00000000E+00  0.00000000E+00
  0.00000000E+00  0.00000000E+00  0.00000000E+00
  0.00000000E+00  0.00000000E+00  0.00000000E+00
  0.00000000E+00  0.00000000E+00  0.00000000E+00
  0.00000000E+00  0.00000000E+00  0.00000000E+00
  0.00000000E+00  0.00000000E+00  0.00000000E+00
  0.00000000E+00  0.00000000E+00  0.00000000E+00
  0.00000000E+00  0.00000000E+00  0.00000000E+00
  0.00000000E+00  0.00000000E+00  0.00000000E+00
  0.00000000E+00  0.00000000E+00  0.00000000E+00
  0.00000000E+00  0.00000000E+00  0.00000000E+00
  0.00000000E+00  0.00000000E+00  0.00000000E+00
  0.00000000E+00  0.00000000E+00  0.00000000E+00
  0.00000000E+00  0.00000000E+00  0.00000000E+00
  0.00000000E+00  0.00000000E+00  0.00000000E+00
  0.00000000E+00  0.00000000E+00  0.00000000E+00
  0.00000000E+00  0.00000000E+00  0.00000000E+00
  0.00000000E+00  0.00000000E+00  0.00000000E+00
  0.00000000E+00  0.00000000E+00  0.00000000E+00
  0.00000000E+00  0.00000000E+00  0.00000000E+00
  0.00000000E+00  0.00000000E+00  0.00000000E+00
  0.00000000E+00  0.00000000E+00  0.00000000E+00
  0.00000000E+00  0.00000000E+00  0.00000000E+00
  0.00000000E+00  0.00000000E+00  0.00000000E+00
  0.00000000E+00  0.00000000E+00  0.00000000E+00
  0.00000000E+00  0.00000000E+00  0.00000000E+00
  0.00000000E+00  0.00000000E+00  0.00000000E+00
  0.00000000E+00  0.00000000E+00  0.00000000E+00
  0.00000000E+00  0.00000000E+00  0.00000000E+00
  0.00000000E+00  0.00000000E+00  0.00000000E+00
  0.00000000E+00  0.00000000E+00  0.00000000E+00
  0.00000000E+00  0.00000000E+00  0.00000000E+00
  0.00000000E+00  0.00000000E+00  0.00000000E+00
  0.00000000E+00  0.00000000E+00  0.00000000E+00
  0.00000000E+00  0.00000000E+00  0.00000000E+00
  0.00000000E+00  0.00000000E+00  0.00000000E+00
  0.00000000E+00  0.00000000E+00  0.00000000E+00
  0.00000000E+00  0.00000000E+00  0.00000000E+00
  0.00000000E+00  0.00000000E+00  0.00000000E+00
  0.00000000E+00  0.00000000E+00  0.00000000E+00
  0.00000000E+00  0.00000000E+00  0.00000000E+00
  0.00000000E+00  0.00000000E+00  0.00000000E+00
  0.00000000E+00  0.00000000E+00  0.00000000E+00
  0.00000000E+00  0.00000000E+00  0.00000000E+00
  0.00000000E+00  0.00000000E+00  0.00000000E+00
  0.00000000E+00  0.00000000E+00  0.00000000E+00
  0.00000000E+00  0.00000000E+00  0.00000000E+00
  0.00000000E+00  0.00000000E+00  0.00000000E+00
  0.00000000E+00  0.00000000E+00  0.00000000E+00
  0.00000000E+00  0.00000000E+00  0.00000000E+00
  0.00000000E+00  0.00000000E+00  0.00000000E+00
  0.00000000E+00  0.00000000E+00  0.00000000E+00
  0.00000000E+00  0.00000000E+00  0.00000000E+00
  0.00000000E+00  0.00000000E+00  0.00000000E+00
  0.00000000E+00  0.00000000E+00  0.00000000E+00
  0.00000000E+00  0.00000000E+00  0.00000000E+00
  0.00000000E+00  0.00000000E+00  0.00000000E+00
  0.00000000E+00  0.00000000E+00  0.00000000E+00
  0.00000000E+00  0.00000000E+00  0.00000000E+00
  0.00000000E+00  0.00000000E+00  0.00000000E+00
  0.00000000E+00  0.00000000E+00  0.00000000E+00
  0.00000000E+00  0.00000000E+00  0.00000000E+00
  0.00000000E+00  0.00000000E+00  0.00000000E+00
  0.00000000E+00  0.00000000E+00  0.00000000E+00
  0.00000000E+00  0.00000000E+00  0.00000000E+00
  0.00000000E+00  0.00000000E+00  0.00000000E+00
  0.00000000E+00  0.00000000E+00  0.00000000E+00
  0.00000000E+00  0.00000000E+00  0.00000000E+00
  0.00000000E+00  0.00000000E+00  0.00000000E+00
  0.00000000E+00  0.00000000E+00  0.00000000E+00
  0.00000000E+00  0.00000000E+00  0.00000000E+00
  0.00000000E+00  0.00000000E+00  0.00000000E+00
  0.00000000E+00  0.00000000E+00  0.00000000E+00
  0.00000000E+00  0.00000000E+00  0.00000000E+00
  0.00000000E+00  0.00000000E+00  0.00000000E+00
  0.00000000E+00  0.00000000E+00  0.00000000E+00
  0.00000000E+00  0.00000000E+00  0.00000000E+00
  0.00000000E+00  0.00000000E+00  0.00000000E+00
  0.00000000E+00  0.00000000E+00  0.00000000E+00
  0.00000000E+00  0.00000000E+00  0.00000000E+00
  0.00000000E+00  0.00000000E+00  0.00000000E+00
  0.00000000E+00  0.00000000E+00  0.00000000E+00
  0.00000000E+00  0.00000000E+00  0.00000000E+00
  0.00000000E+00  0.00000000E+00  0.00000000E+00
  0.00000000E+00  0.00000000E+00  0.00000000E+00
  0.00000000E+00  0.00000000E+00  0.00000000E+00
  0.00000000E+00  0.00000000E+00  0.00000000E+00
  0.00000000E+00  0.00000000E+00  0.00000000E+00
  0.00000000E+00  0.00000000E+00  0.00000000E+00
  0.00000000E+00  0.00000000E+00  0.00000000E+00
  0.00000000E+00  0.00000000E+00  0.00000000E+00
  0.00000000E+00  0.00000000E+00  0.00000000E+00
  0.00000000E+00  0.00000000E+00  0.00000000E+00
  0.00000000E+00  0.00000000E+00  0.00000000E+00
  0.00000000E+00  0.00000000E+00  0.00000000E+00
  0.00000000E+00  0.00000000E+00  0.00000000E+00
  0.00000000E+00  0.00000000E+00  0.00000000E+00
  0.00000000E+00  0.00000000E+00  0.00000000E+00
  0.00000000E+00  0.00000000E+00  0.00000000E+00
  0.00000000E+00  0.00000000E+00  0.00000000E+00
  0.00000000E+00  0.00000000E+00  0.00000000E+00
  0.00000000E+00  0.00000000E+00  0.00000000E+00
  0.00000000E+00  0.00000000E+00  0.00000000E+00
  0.00000000E+00  0.00000000E+00  0.00000000E+00
  0.00000000E+00  0.00000000E+00  0.00000000E+00
  0.00000000E+00  0.00000000E+00  0.00000000E+00
  0.00000000E+00  0.00000000E+00  0.00000000E+00
  0.00000000E+00  0.00000000E+00  0.00000000E+00
  0.00000000E+00  0.00000000E+00  0.00000000E+00
  0.00000000E+00  0.00000000E+00  0.00000000E+00
  0.00000000E+00  0.00000000E+00  0.00000000E+00
  0.00000000E+00  0.00000000E+00  0.00000000E+00
  0.00000000E+00  0.00000000E+00  0.00000000E+00
  0.00000000E+00  0.00000000E+00  0.00000000E+00
  0.00000000E+00  0.00000000E+00  0.00000000E+00
  0.00000000E+00  0.00000000E+00  0.00000000E+00
  0.00000000E+00  0.00000000E+00  0.00000000E+00
  0.00000000E+00  0.00000000E+00  0.00000000E+00
  0.00000000E+00  0.00000000E+00  0.00000000E+00
  0.00000000E+00  0.00000000E+00  0.00000000E+00
  0.00000000E+00  0.00000000E+00  0.00000000E+00
  0.00000000E+00  0.00000000E+00  0.00000000E+00
  0.00000000E+00  0.00000000E+00  0.00000000E+00
  0.00000000E+00  0.00000000E+00  0.00000000E+00
  0.00000000E+00  0.00000000E+00  0.00000000E+00
  0.00000000E+00  0.00000000E+00  0.00000000E+00
  0.00000000E+00  0.00000000E+00  0.00000000E+00
  0.00000000E+00  0.00000000E+00  0.00000000E+00
  0.00000000E+00  0.00000000E+00  0.00000000E+00
  0.00000000E+00  0.00000000E+00  0.00000000E+00
  0.00000000E+00  0.00000000E+00  0.00000000E+00
  0.00000000E+00  0.00000000E+00  0.00000000E+00
  0.00000000E+00  0.00000000E+00  0.00000000E+00
  0.00000000E+00  0.00000000E+00  0.00000000E+00
  0.00000000E+00  0.00000000E+00  0.00000000E+00
  0.00000000E+00  0.00000000E+00  0.00000000E+00
  0.00000000E+00  0.00000000E+00  0.00000000E+00
  0.00000000E+00  0.00000000E+00  0.00000000E+00
  0.00000000E+00  0.00000000E+00  0.00000000E+00
  0.00000000E+00  0.00000000E+00  0.00000000E+00
  0.00000000E+00  0.00000000E+00  0.00000000E+00
  0.00000000E+00  0.00000000E+00  0.00000000E+00
  0.00000000E+00  0.00000000E+00  0.00000000E+00
  0.00000000E+00  0.00000000E+00  0.00000000E+00
  0.00000000E+00  0.00000000E+00  0.00000000E+00
  0.00000000E+00  0.00000000E+00  0.00000000E+00
  0.00000000E+00  0.00000000E+00  0.00000000E+00
  0.00000000E+00  0.00000000E+00  0.00000000E+00
  0.00000000E+00  0.00000000E+00  0.00000000E+00
  0.00000000E+00  0.00000000E+00  0.00000000E+00
  0.00000000E+00  0.00000000E+00  0.00000000E+00
  0.00000000E+00  0.00000000E+00  0.00000000E+00
  0.00000000E+00  0.00000000E+00  0.00000000E+00
  0.00000000E+00  0.00000000E+00  0.00000000E+00
  0.00000000E+00  0.00000000E+00  0.00000000E+00
  0.00000000E+00  0.00000000E+00  0.00000000E+00
  0.00000000E+00  0.00000000E+00  0.00000000E+00
  0.00000000E+00  0.00000000E+00  0.00000000E+00
  0.00000000E+00  0.00000000E+00  0.00000000E+00
  0.00000000E+00  0.00000000E+00  0.00000000E+00
  0.00000000E+00  0.00000000E+00  0.00000000E+00
  0.00000000E+00  0.00000000E+00  0.00000000E+00
  0.00000000E+00  0.00000000E+00  0.00000000E+00
  0.00000000E+00  0.00000000E+00  0.00000000E+00
  0.00000000E+00  0.00000000E+00  0.00000000E+00
  0.00000000E+00  0.00000000E+00  0.00000000E+00
  0.00000000E+00  0.00000000E+00  0.00000000E+00
  0.00000000E+00  0.00000000E+00  0.00000000E+00
  0.00000000E+00  0.00000000E+00  0.00000000E+00
  0.00000000E+00  0.00000000E+00  0.00000000E+00
  0.00000000E+00  0.00000000E+00  0.00000000E+00
  0.00000000E+00  0.00000000E+00  0.00000000E+00
  0.00000000E+00  0.00000000E+00  0.00000000E+00
  0.00000000E+00  0.00000000E+00  0.00000000E+00
  0.00000000E+00  0.00000000E+00  0.00000000E+00
  0.00000000E+00  0.00000000E+00  0.00000000E+00
  0.00000000E+00  0.00000000E+00  0.00000000E+00
  0.00000000E+00  0.00000000E+00  0.00000000E+00
  0.00000000E+00  0.00000000E+00  0.00000000E+00
  0.00000000E+00  0.00000000E+00  0.00000000E+00
  0.00000000E+00  0.00000000E+00  0.00000000E+00
  0.00000000E+00  0.00000000E+00  0.00000000E+00
  0.00000000E+00  0.00000000E+00  0.00000000E+00
  0.00000000E+00  0.00000000E+00  0.00000000E+00
  0.00000000E+00  0.00000000E+00  0.00000000E+00
  0.00000000E+00  0.00000000E+00  0.00000000E+00
  0.00000000E+00  0.00000000E+00  0.00000000E+00
  0.00000000E+00  0.00000000E+00  0.00000000E+00
  0.00000000E+00  0.00000000E+00  0.00000000E+00
  0.00000000E+00  0.00000000E+00  0.00000000E+00
  0.00000000E+00  0.00000000E+00  0.00000000E+00
  0.00000000E+00  0.00000000E+00  0.00000000E+00
  0.00000000E+00  0.00000000E+00  0.00000000E+00
  0.00000000E+00  0.00000000E+00  0.00000000E+00
  0.00000000E+00  0.00000000E+00  0.00000000E+00
  0.00000000E+00  0.00000000E+00  0.00000000E+00
  0.00000000E+00  0.00000000E+00  0.00000000E+00
  0.00000000E+00  0.00000000E+00  0.00000000E+00
  0.00000000E+00  0.00000000E+00  0.00000000E+00
  0.00000000E+00  0.00000000E+00  0.00000000E+00
  0.00000000E+00  0.00000000E+00  0.00000000E+00
  0.00000000E+00  0.00000000E+00  0.00000000E+00
  0.00000000E+00  0.00000000E+00  0.00000000E+00
  0.00000000E+00  0.00000000E+00  0.00000000E+00
  0.00000000E+00  0.00000000E+00  0.00000000E+00
  0.00000000E+00  0.00000000E+00  0.00000000E+00
  0.00000000E+00  0.00000000E+00  0.00000000E+00
  0.00000000E+00  0.00000000E+00  0.00000000E+00
  0.00000000E+00  0.00000000E+00  0.00000000E+00
  0.00000000E+00  0.00000000E+00  0.00000000E+00
  0.00000000E+00  0.00000000E+00  0.00000000E+00
  0.00000000E+00  0.00000000E+00  0.00000000E+00
  0.00000000E+00  0.00000000E+00  0.00000000E+00
  0.00000000E+00  0.00000000E+00  0.00000000E+00
  0.00000000E+00  0.00000000E+00  0.00000000E+00
  0.00000000E+00  0.00000000E+00  0.00000000E+00
  0.00000000E+00  0.00000000E+00  0.00000000E+00
  0.00000000E+00  0.00000000E+00  0.00000000E+00
  0.00000000E+00  0.00000000E+00  0.00000000E+00
  0.00000000E+00  0.00000000E+00  0.00000000E+00
  0.00000000E+00  0.00000000E+00  0.00000000E+00
  0.00000000E+00  0.00000000E+00  0.00000000E+00
  0.00000000E+00  0.00000000E+00  0.00000000E+00
  0.00000000E+00  0.00000000E+00  0.00000000E+00
