Ni  O                                   
    1.000000000000000     
    10.5415000915999997    0.0000000000000000    0.0000000000000000
     5.2707500457999998    9.1292068732999994    0.0000000000000000
     0.0000000000000000    0.0000000000000000   29.9415000916000018
   Ni   O 
   125   189
Direct
  0.0000000000000000 -0.0000000000000000 -0.0436937860063537
  0.0000000000000000 -0.0000000000000000  0.0660465716196464
  0.0000000000000000 -0.0000000000000000  0.1418518917186783
  0.0000000000000000 -0.0000000000000000  0.2115862459906244
  0.0000000000000000 -0.0000000000000000  0.2832976587796396
  0.0005337306339062  0.1990504471711508 -0.0417548930981236
 -0.0004396587803302  0.1992906097825067  0.0665157090958199
  0.0002015375566079  0.1998646879225486  0.1420278840297683
 -0.0007080401427656  0.2005194493202117  0.2118917965934829
  0.0070070905389486  0.1944917355895298  0.2801636329402032
 -0.0021399280857180  0.4005613357893184 -0.0447463874474174
 -0.0004239795956477  0.3995413601545824  0.0660320687227880
  0.0004746568174458  0.4005658710870382  0.1423428353522837
  0.0001981348230037  0.3997028313036515  0.2120738221728216
 -0.0035092287361170  0.4064679787805544  0.2819816162385935
  0.0021399280857180  0.5994386942106841 -0.0447463874474174
  0.0004239795956477  0.6004586698454202  0.0660320687227880
 -0.0004746568174458  0.5994341589129641  0.1423428353522837
 -0.0001981348230037  0.6002971986963511  0.2120738221728216
  0.0035092287361170  0.5935320512194480  0.2819816162385935
 -0.0005337306339062  0.8009495678288469 -0.0417548930981236
  0.0004396587803302  0.8007094052174909  0.0665157090958199
 -0.0002015375566079  0.8001353270774492  0.1420278840297683
  0.0007080401427656  0.7994805656797860  0.2118917965934829
 -0.0070070905389486  0.8055082794104680  0.2801636329402032
  0.1990504471711508  0.0005337306339062 -0.0417548930981236
  0.1992906097825067 -0.0004396587803302  0.0665157090958199
  0.1998646879225486  0.0002015375566079  0.1420278840297683
  0.2005194493202117 -0.0007080401427656  0.2118917965934829
  0.1944917355895298  0.0070070905389486  0.2801636329402032
  0.1993669659183773  0.1993669659183773 -0.0431630627731250
  0.1996200399385476  0.1996200399385476  0.0662634409610961
  0.2005649584692485  0.2005649584692485  0.1423195871965389
  0.1997883887727610  0.1997883887727610  0.2116231867580456
  0.2012744997423191  0.2012744997423191  0.2807752958422922
  0.2027776236194860  0.4032548886070555 -0.0451948866641456
  0.2003336282555628  0.3998470098981122  0.0666400536182980
  0.2005078443371895  0.3997018918009150  0.1420906275409458
  0.2003323780165686  0.3995106443609084  0.2116118101319911
  0.1903057177027899  0.4081645145832727  0.2811104447678481
  0.2124442039910659  0.5901472528525936 -0.0442268272306547
  0.2001964533695107  0.6012962802643145  0.0661378427630855
  0.1994516711443133  0.6003310188118659  0.1420132719759574
  0.2000749357133635  0.5998231062581807  0.2118599608627273
  0.1999413461168837  0.5991665892451564  0.2797311914181076
  0.2045967752146227  0.7954032397853751 -0.0418286737685546
  0.1963452825511057  0.8036547324488920  0.0680708892189558
  0.2007219073986156  0.7992781076013821  0.1416300685027495
  0.2003619806934817  0.7996380343065160  0.2114211162467599
  0.1940740388152397  0.8059259761847581  0.2817344174642763
  0.4005613357893184 -0.0021399280857180 -0.0447463874474174
  0.3995413601545824 -0.0004239795956477  0.0660320687227880
  0.4005658710870382  0.0004746568174458  0.1423428353522837
  0.3997028313036515  0.0001981348230037  0.2120738221728216
  0.4064679787805544 -0.0035092287361170  0.2819816162385935
  0.4032548886070555  0.2027776236194860 -0.0451948866641456
  0.3998470098981122  0.2003336282555628  0.0666400536182980
  0.3997018918009150  0.2005078443371895  0.1420906275409458
  0.3995106443609084  0.2003323780165686  0.2116118101319911
  0.4081645145832727  0.1903057177027899  0.2811104447678481
  0.4080665295072646  0.4080665295072646 -0.0442927652918254
  0.4009863153389061  0.4009863153389061  0.0659336233239578
  0.4003405783659010  0.4003405783659010  0.1418269991987312
  0.4000564174222950  0.4000564174222950  0.2122868146653579
  0.4013431124943739  0.4013431124943739  0.2797677473061632
  0.4135458132448576  0.5864542167551450 -0.0479884986230821
  0.3975250493997352  0.6024749806002673  0.0669122323431941
  0.4001540262439678  0.5998460037560347  0.1413331363328804
  0.3989799564116823  0.6010200735883201  0.2119614026964412
  0.4067944437890939  0.5932055862109087  0.2828970041664329
  0.4098527771474089  0.7875558110089317 -0.0442268272306547
  0.3987037497356878  0.7998035616304869  0.0661378427630855
  0.3996690111881365  0.8005483438556843  0.1420132719759574
  0.4001769237418217  0.7999250792866341  0.2118599608627273
  0.4008334407548461  0.8000586688831142  0.2797311914181076
  0.5994386942106841  0.0021399280857180 -0.0447463874474174
  0.6004586698454202  0.0004239795956477  0.0660320687227880
  0.5994341589129641 -0.0004746568174458  0.1423428353522837
  0.6002971986963511 -0.0001981348230037  0.2120738221728216
  0.5935320512194480  0.0035092287361170  0.2819816162385935
  0.5901472528525936  0.2124442039910659 -0.0442268272306547
  0.6012962802643145  0.2001964533695107  0.0661378427630855
  0.6003310188118659  0.1994516711443133  0.1420132719759574
  0.5998231062581807  0.2000749357133635  0.2118599608627273
  0.5991665892451564  0.1999413461168837  0.2797311914181076
  0.5864542167551450  0.4135458132448576 -0.0479884986230821
  0.6024749806002673  0.3975250493997352  0.0669122323431941
  0.5998460037560347  0.4001540262439678  0.1413331363328804
  0.6010200735883201  0.3989799564116823  0.2119614026964412
  0.5932055862109087  0.4067944437890939  0.2828970041664329
  0.5919335004927380  0.5919335004927380 -0.0442927652918254
  0.5990137146610964  0.5990137146610964  0.0659336233239578
  0.5996594516341015  0.5996594516341015  0.1418269991987312
  0.5999436125777075  0.5999436125777075  0.2122868146653579
  0.5986569175056287  0.5986569175056287  0.2797677473061632
  0.5967451413929471  0.7972223913805118 -0.0451948866641456
  0.6001530201018903  0.7996663867444350  0.0666400536182980
  0.6002981381990875  0.7994921706628081  0.1420906275409458
  0.6004893856390942  0.7996676369834290  0.2116118101319911
  0.5918355154167299  0.8096942972972080  0.2811104447678481
  0.8009495678288469 -0.0005337306339062 -0.0417548930981236
  0.8007094052174909  0.0004396587803302  0.0665157090958199
  0.8001353270774492 -0.0002015375566079  0.1420278840297683
  0.7994805656797860  0.0007080401427656  0.2118917965934829
  0.8055082794104680 -0.0070070905389486  0.2801636329402032
  0.7954032397853751  0.2045967752146227 -0.0418286737685546
  0.8036547324488920  0.1963452825511057  0.0680708892189558
  0.7992781076013821  0.2007219073986156  0.1416300685027495
  0.7996380343065160  0.2003619806934817  0.2114211162467599
  0.8059259761847581  0.1940740388152397  0.2817344174642763
  0.7875558110089317  0.4098527771474089 -0.0442268272306547
  0.7998035616304870  0.3987037497356878  0.0661378427630855
  0.8005483438556843  0.3996690111881365  0.1420132719759574
  0.7999250792866341  0.4001769237418217  0.2118599608627273
  0.8000586688831142  0.4008334407548461  0.2797311914181076
  0.7972223913805118  0.5967451413929471 -0.0451948866641456
  0.7996663867444350  0.6001530201018903  0.0666400536182980
  0.7994921706628081  0.6002981381990875  0.1420906275409458
  0.7996676369834290  0.6004893856390942  0.2116118101319911
  0.8096942972972080  0.5918355154167299  0.2811104447678481
  0.8006330490816204  0.8006330490816204 -0.0431630627731250
  0.8003799750614501  0.8003799750614500  0.0662634409610961
  0.7994350565307493  0.7994350565307493  0.1423195871965389
  0.8002116262272367  0.8002116262272367  0.2116231867580456
  0.7987255152576785  0.7987255152576785  0.2807752958422922
  0.0995344142854309  0.0995344142854309  0.0239308606940741
  0.1004907169973646  0.1004907169973646  0.1055001586166978
  0.0996749091755498  0.0996749091755498  0.1767818313245331
  0.1002834944217621  0.1002834944217621  0.2485076358380635
  0.0988023921764667  0.0988023921764667  0.3218035840246589
  0.1002108598023018  0.2984863257175169  0.0248629245483964
  0.1005494946642931  0.3001405426009038  0.1063557018761541
  0.1006182673227197  0.2996105473911974  0.1768753222180238
  0.1003579116908116  0.2998230673985208  0.2481013344926676
  0.1011089274774326  0.2964976637598199  0.3219560528781928
  0.1004219840713566  0.4998499058269954  0.0247641871785863
  0.0995670493370645  0.5001348493962172  0.1062196017326605
  0.1003216630586589  0.4996323280363748  0.1769823503955817
  0.1003012625645306  0.5001887864773933  0.2483510398311216
  0.1014271383893425  0.4997386486962878  0.3231907041504098
  0.0980779351368740  0.7024124075454381  0.0242014381841052
  0.1004046927781276  0.6987384584423828  0.1055574231890781
  0.1003411799298268  0.6995830613861584  0.1768153416843736
  0.1003562713747644  0.6999295987461137  0.2481594592292640
  0.1021083014705579  0.6959186911996362  0.3212727051785860
  0.1011641887492620  0.8988357882507396  0.0248594752386006
  0.0998489418817967  0.9001510351182049  0.1054156997881424
  0.1009683258192871  0.8990316511807145  0.1766923267509087
  0.1003265096045684  0.8996734673954334  0.2481957088361883
  0.1038186208813537  0.8961813561186480  0.3238255271044250
  0.2984863257175169  0.1002108598023018  0.0248629245483964
  0.3001405426009038  0.1005494946642931  0.1063557018761541
  0.2996105473911974  0.1006182673227197  0.1768753222180238
  0.2998230673985208  0.1003579116908116  0.2481013344926676
  0.2964976637598199  0.1011089274774326  0.3219560528781928
  0.2999326899995198  0.2999326899995198  0.0250755036630126
  0.3002119515554202  0.3002119515554202  0.1061150059114536
  0.3001744202163865  0.3001744202163865  0.1767291936402116
  0.3001048025762030  0.3001048025762030  0.2479004672002795
  0.3017234490765324  0.3017234490765324  0.3216787915299812
  0.3002043715315944  0.5011089160441414  0.0248837226576058
  0.3006114926688545  0.4988398453325368  0.1056673227956816
  0.3004699070943320  0.4996930879943292  0.1770430609000513
  0.3003804009565733  0.4997458189583939  0.2480585413809409
  0.3008779074206419  0.4981729942165369  0.3211657683254283
  0.2961922753341767  0.7038077246658233  0.0264776219144189
  0.3017377309512826  0.6982622690487172  0.1053116057038229
  0.3007284918836558  0.6992715081163442  0.1768336548178309
  0.2998440729682021  0.7001559270317979  0.2476514787048687
  0.3030081441914249  0.6969918558085751  0.3216155073002869
  0.2975875924545618  0.9019220418631277  0.0242014381841052
  0.3012615415576174  0.8995952842218742  0.1055574231890781
  0.3004169386138416  0.8996587970701748  0.1768153416843736
  0.3000704012538865  0.8996437056252373  0.2481594592292640
  0.3040813088003637  0.8978916755294438  0.3212727051785860
  0.4998499058269954  0.1004219840713566  0.0247641871785863
  0.5001348493962172  0.0995670493370645  0.1062196017326605
  0.4996323280363748  0.1003216630586589  0.1769823503955817
  0.5001887864773933  0.1003012625645306  0.2483510398311216
  0.4997386486962878  0.1014271383893425  0.3231907041504098
  0.5011089160441414  0.3002043715315944  0.0248837226576058
  0.4988398453325368  0.3006114926688545  0.1056673227956816
  0.4996930879943292  0.3004699070943320  0.1770430609000513
  0.4997458189583939  0.3003804009565733  0.2480585413809409
  0.4981729942165369  0.3008779074206419  0.3211657683254283
  0.5000000000000000  0.5000000000000000  0.0275236496544546
  0.5000000000000000  0.5000000000000000  0.1051276094406084
  0.5000000000000000  0.5000000000000000  0.1772116454853302
  0.5000000000000000  0.5000000000000000  0.2478886910396899
  0.5000000000000000  0.5000000000000000  0.3246036765473120
  0.4988910839558585  0.6997956284684056  0.0248837226576058
  0.5011601546674632  0.6993885073311455  0.1056673227956816
  0.5003069120056708  0.6995300929056680  0.1770430609000513
  0.5002541810416061  0.6996195990434266  0.2480585413809409
  0.5018270057834632  0.6991220925793581  0.3211657683254283
  0.5001500941730045  0.8995779929286449  0.0247641871785863
  0.4998651506037827  0.9004329276629370  0.1062196017326605
  0.5003676719636251  0.8996783139413427  0.1769823503955817
  0.4998112135226067  0.8996987144354710  0.2483510398311216
  0.5002613513037121  0.8985728386106592  0.3231907041504098
  0.7024124075454381  0.0980779351368740  0.0242014381841052
  0.6987384584423828  0.1004046927781276  0.1055574231890781
  0.6995830613861584  0.1003411799298268  0.1768153416843736
  0.6999295987461137  0.1003562713747644  0.2481594592292640
  0.6959186911996362  0.1021083014705579  0.3212727051785860
  0.7038077246658233  0.2961922753341767  0.0264776219144189
  0.6982622690487172  0.3017377309512826  0.1053116057038229
  0.6992715081163442  0.3007284918836558  0.1768336548178309
  0.7001559270317979  0.2998440729682021  0.2476514787048687
  0.6969918558085751  0.3030081441914249  0.3216155073002869
  0.6997956284684056  0.4988910839558585  0.0248837226576058
  0.6993885073311455  0.5011601546674632  0.1056673227956816
  0.6995300929056680  0.5003069120056708  0.1770430609000513
  0.6996195990434266  0.5002541810416061  0.2480585413809409
  0.6991220925793581  0.5018270057834632  0.3211657683254283
  0.7000673100004803  0.7000673100004803  0.0250755036630126
  0.6997880484445798  0.6997880484445798  0.1061150059114536
  0.6998255797836136  0.6998255797836136  0.1767291936402116
  0.6998951974237971  0.6998951974237971  0.2479004672002795
  0.6982765509234677  0.6982765509234677  0.3216787915299812
  0.7015136742824830  0.8997891171976998  0.0248629245483964
  0.6998594573990962  0.8994504823357086  0.1063557018761541
  0.7003894526088027  0.8993817096772820  0.1768753222180238
  0.7001769326014792  0.8996420653091900  0.2481013344926676
  0.7035023362401801  0.8988910495225692  0.3219560528781928
  0.8988357882507325  0.1011641887492620  0.0248594752386006
  0.9001510351181978  0.0998489418817967  0.1054156997881424
  0.8990316511807074  0.1009683258192871  0.1766923267509087
  0.8996734673954263  0.1003265096045684  0.2481957088361883
  0.8961813561186409  0.1038186208813537  0.3238255271044250
  0.9019220418631277  0.2975875924545618  0.0242014381841052
  0.8995952842218742  0.3012615415576174  0.1055574231890781
  0.8996587970701748  0.3004169386138416  0.1768153416843736
  0.8996437056252373  0.3000704012538865  0.2481594592292640
  0.8978916755294438  0.3040813088003637  0.3212727051785860
  0.8995779929286449  0.5001500941730045  0.0247641871785863
  0.9004329276629370  0.4998651506037827  0.1062196017326605
  0.8996783139413427  0.5003676719636251  0.1769823503955817
  0.8996987144354710  0.4998112135226067  0.2483510398311216
  0.8985728386106592  0.5002613513037121  0.3231907041504098
  0.8997891171976998  0.7015136742824830  0.0248629245483964
  0.8994504823357086  0.6998594573990962  0.1063557018761541
  0.8993817096772820  0.7003894526088027  0.1768753222180238
  0.8996420653091900  0.7001769326014792  0.2481013344926676
  0.8988910495225692  0.7035023362401801  0.3219560528781928
  0.9004655627145637  0.9004655627145708  0.0239308606940741
  0.8995092600026301  0.8995092600026372  0.1055001586166978
  0.9003250678244449  0.9003250678244520  0.1767818313245331
  0.8997164825782326  0.8997164825782397  0.2485076358380635
  0.9011975848235280  0.9011975848235351  0.3218035840246589
  0.0000000000000000 -0.0000000000000000  0.3734642331957591
  0.0019002681127424  0.1227181866184061  0.3753538748590229
 -0.0026835599812592  0.2508397163390381  0.3734347585080435
  0.0018227965237070  0.3757620487396885  0.3729003550761634
  0.0000000000000000  0.5000000000000000  0.3760265491460235
 -0.0018227965237070  0.6242379512603113  0.3729003550761634
  0.0026835599812592  0.7491602836609620  0.3734347585080435
 -0.0019002681127424  0.8772818133815938  0.3753538748590229
  0.1227181866184061  0.0019002681127424  0.3753538748590229
  0.1231031333284608  0.1231031333284608  0.3916454680232827
  0.1209777865489161  0.2567574046613398  0.3958502830114993
  0.1222494378399442  0.3761656652262976  0.3753744839639147
  0.1205241863263427  0.5021018077253061  0.4031092009355792
  0.1225995100264258  0.6295068456332662  0.3833591419849505
  0.1238960254622346  0.7476848702225912  0.3840459845441766
  0.1192968571369090  0.8807031428630910  0.4018458020834643
  0.2508397163390381 -0.0026835599812592  0.3734347585080435
  0.2567574046613398  0.1209777865489161  0.3958502830114993
  0.2505819345047250  0.2505819345047250  0.3745983306698175
  0.2521377522688084  0.3716368426767708  0.3818099236781945
  0.2560252014562647  0.4985570475443140  0.3928245590357788
  0.2508040861103188  0.6241706695614184  0.3700596926970885
  0.2545557402625683  0.7454442597374318  0.3897285008155920
  0.2523151297774089  0.8761039745377653  0.3840459845441766
  0.3757620487396885  0.0018227965237070  0.3729003550761634
  0.3761656652262976  0.1222494378399442  0.3753744839639147
  0.3716368426767708  0.2521377522688084  0.3818099236781945
  0.3761428425004951  0.3761428425004951  0.3693165712037403
  0.3728770594620079  0.5005983102846068  0.3808693261515635
  0.3735707812551537  0.6264292187448463  0.3783615113907237
  0.3758293304385815  0.7491959138896812  0.3700596926970885
  0.3704931543667339  0.8774004899735740  0.3833591419849505
  0.5000000000000000 -0.0000000000000000  0.3760265491460235
  0.5021018077253061  0.1205241863263426  0.4031092009355792
  0.4985570475443141  0.2560252014562647  0.3928245590357788
  0.5005983102846068  0.3728770594620079  0.3808693261515635
  0.5000000000000000  0.5000000000000000  0.4097534428246364
  0.4994016897153932  0.6271229405379921  0.3808693261515635
  0.5014429524556859  0.7439747985437352  0.3928245590357788
  0.4978981922746940  0.8794758136736573  0.4031092009355792
  0.6242379512603113 -0.0018227965237070  0.3729003550761634
  0.6295068456332662  0.1225995100264258  0.3833591419849505
  0.6241706695614184  0.2508040861103188  0.3700596926970885
  0.6264292187448463  0.3735707812551537  0.3783615113907237
  0.6271229405379921  0.4994016897153932  0.3808693261515635
  0.6238571574995049  0.6238571574995049  0.3693165712037403
  0.6283631573232292  0.7478622477311916  0.3818099236781945
  0.6238343347737024  0.8777505621600558  0.3753744839639147
  0.7491602836609620  0.0026835599812592  0.3734347585080435
  0.7476848702225911  0.1238960254622347  0.3840459845441766
  0.7454442597374318  0.2545557402625682  0.3897285008155920
  0.7491959138896812  0.3758293304385815  0.3700596926970885
  0.7439747985437352  0.5014429524556859  0.3928245590357788
  0.7478622477311916  0.6283631573232292  0.3818099236781945
  0.7494180654952749  0.7494180654952749  0.3745983306698175
  0.7432425953386602  0.8790222134510839  0.3958502830114993
  0.8772818133815938 -0.0019002681127424  0.3753538748590229
  0.8807031428630910  0.1192968571369090  0.4018458020834643
  0.8761039745377653  0.2523151297774088  0.3840459845441766
  0.8774004899735740  0.3704931543667339  0.3833591419849505
  0.8794758136736573  0.4978981922746940  0.4031092009355792
  0.8777505621600558  0.6238343347737024  0.3753744839639147
  0.8790222134510839  0.7432425953386603  0.3958502830114993
  0.8768968666715393  0.8768968666715393  0.3916454680232827
 
  0.00000000E+00  0.00000000E+00  0.00000000E+00
  0.00000000E+00  0.00000000E+00  0.00000000E+00
  0.00000000E+00  0.00000000E+00  0.00000000E+00
  0.00000000E+00  0.00000000E+00  0.00000000E+00
  0.00000000E+00  0.00000000E+00  0.00000000E+00
  0.00000000E+00  0.00000000E+00  0.00000000E+00
  0.00000000E+00  0.00000000E+00  0.00000000E+00
  0.00000000E+00  0.00000000E+00  0.00000000E+00
  0.00000000E+00  0.00000000E+00  0.00000000E+00
  0.00000000E+00  0.00000000E+00  0.00000000E+00
  0.00000000E+00  0.00000000E+00  0.00000000E+00
  0.00000000E+00  0.00000000E+00  0.00000000E+00
  0.00000000E+00  0.00000000E+00  0.00000000E+00
  0.00000000E+00  0.00000000E+00  0.00000000E+00
  0.00000000E+00  0.00000000E+00  0.00000000E+00
  0.00000000E+00  0.00000000E+00  0.00000000E+00
  0.00000000E+00  0.00000000E+00  0.00000000E+00
  0.00000000E+00  0.00000000E+00  0.00000000E+00
  0.00000000E+00  0.00000000E+00  0.00000000E+00
  0.00000000E+00  0.00000000E+00  0.00000000E+00
  0.00000000E+00  0.00000000E+00  0.00000000E+00
  0.00000000E+00  0.00000000E+00  0.00000000E+00
  0.00000000E+00  0.00000000E+00  0.00000000E+00
  0.00000000E+00  0.00000000E+00  0.00000000E+00
  0.00000000E+00  0.00000000E+00  0.00000000E+00
  0.00000000E+00  0.00000000E+00  0.00000000E+00
  0.00000000E+00  0.00000000E+00  0.00000000E+00
  0.00000000E+00  0.00000000E+00  0.00000000E+00
  0.00000000E+00  0.00000000E+00  0.00000000E+00
  0.00000000E+00  0.00000000E+00  0.00000000E+00
  0.00000000E+00  0.00000000E+00  0.00000000E+00
  0.00000000E+00  0.00000000E+00  0.00000000E+00
  0.00000000E+00  0.00000000E+00  0.00000000E+00
  0.00000000E+00  0.00000000E+00  0.00000000E+00
  0.00000000E+00  0.00000000E+00  0.00000000E+00
  0.00000000E+00  0.00000000E+00  0.00000000E+00
  0.00000000E+00  0.00000000E+00  0.00000000E+00
  0.00000000E+00  0.00000000E+00  0.00000000E+00
  0.00000000E+00  0.00000000E+00  0.00000000E+00
  0.00000000E+00  0.00000000E+00  0.00000000E+00
  0.00000000E+00  0.00000000E+00  0.00000000E+00
  0.00000000E+00  0.00000000E+00  0.00000000E+00
  0.00000000E+00  0.00000000E+00  0.00000000E+00
  0.00000000E+00  0.00000000E+00  0.00000000E+00
  0.00000000E+00  0.00000000E+00  0.00000000E+00
  0.00000000E+00  0.00000000E+00  0.00000000E+00
  0.00000000E+00  0.00000000E+00  0.00000000E+00
  0.00000000E+00  0.00000000E+00  0.00000000E+00
  0.00000000E+00  0.00000000E+00  0.00000000E+00
  0.00000000E+00  0.00000000E+00  0.00000000E+00
  0.00000000E+00  0.00000000E+00  0.00000000E+00
  0.00000000E+00  0.00000000E+00  0.00000000E+00
  0.00000000E+00  0.00000000E+00  0.00000000E+00
  0.00000000E+00  0.00000000E+00  0.00000000E+00
  0.00000000E+00  0.00000000E+00  0.00000000E+00
  0.00000000E+00  0.00000000E+00  0.00000000E+00
  0.00000000E+00  0.00000000E+00  0.00000000E+00
  0.00000000E+00  0.00000000E+00  0.00000000E+00
  0.00000000E+00  0.00000000E+00  0.00000000E+00
  0.00000000E+00  0.00000000E+00  0.00000000E+00
  0.00000000E+00  0.00000000E+00  0.00000000E+00
  0.00000000E+00  0.00000000E+00  0.00000000E+00
  0.00000000E+00  0.00000000E+00  0.00000000E+00
  0.00000000E+00  0.00000000E+00  0.00000000E+00
  0.00000000E+00  0.00000000E+00  0.00000000E+00
  0.00000000E+00  0.00000000E+00  0.00000000E+00
  0.00000000E+00  0.00000000E+00  0.00000000E+00
  0.00000000E+00  0.00000000E+00  0.00000000E+00
  0.00000000E+00  0.00000000E+00  0.00000000E+00
  0.00000000E+00  0.00000000E+00  0.00000000E+00
  0.00000000E+00  0.00000000E+00  0.00000000E+00
  0.00000000E+00  0.00000000E+00  0.00000000E+00
  0.00000000E+00  0.00000000E+00  0.00000000E+00
  0.00000000E+00  0.00000000E+00  0.00000000E+00
  0.00000000E+00  0.00000000E+00  0.00000000E+00
  0.00000000E+00  0.00000000E+00  0.00000000E+00
  0.00000000E+00  0.00000000E+00  0.00000000E+00
  0.00000000E+00  0.00000000E+00  0.00000000E+00
  0.00000000E+00  0.00000000E+00  0.00000000E+00
  0.00000000E+00  0.00000000E+00  0.00000000E+00
  0.00000000E+00  0.00000000E+00  0.00000000E+00
  0.00000000E+00  0.00000000E+00  0.00000000E+00
  0.00000000E+00  0.00000000E+00  0.00000000E+00
  0.00000000E+00  0.00000000E+00  0.00000000E+00
  0.00000000E+00  0.00000000E+00  0.00000000E+00
  0.00000000E+00  0.00000000E+00  0.00000000E+00
  0.00000000E+00  0.00000000E+00  0.00000000E+00
  0.00000000E+00  0.00000000E+00  0.00000000E+00
  0.00000000E+00  0.00000000E+00  0.00000000E+00
  0.00000000E+00  0.00000000E+00  0.00000000E+00
  0.00000000E+00  0.00000000E+00  0.00000000E+00
  0.00000000E+00  0.00000000E+00  0.00000000E+00
  0.00000000E+00  0.00000000E+00  0.00000000E+00
  0.00000000E+00  0.00000000E+00  0.00000000E+00
  0.00000000E+00  0.00000000E+00  0.00000000E+00
  0.00000000E+00  0.00000000E+00  0.00000000E+00
  0.00000000E+00  0.00000000E+00  0.00000000E+00
  0.00000000E+00  0.00000000E+00  0.00000000E+00
  0.00000000E+00  0.00000000E+00  0.00000000E+00
  0.00000000E+00  0.00000000E+00  0.00000000E+00
  0.00000000E+00  0.00000000E+00  0.00000000E+00
  0.00000000E+00  0.00000000E+00  0.00000000E+00
  0.00000000E+00  0.00000000E+00  0.00000000E+00
  0.00000000E+00  0.00000000E+00  0.00000000E+00
  0.00000000E+00  0.00000000E+00  0.00000000E+00
  0.00000000E+00  0.00000000E+00  0.00000000E+00
  0.00000000E+00  0.00000000E+00  0.00000000E+00
  0.00000000E+00  0.00000000E+00  0.00000000E+00
  0.00000000E+00  0.00000000E+00  0.00000000E+00
  0.00000000E+00  0.00000000E+00  0.00000000E+00
  0.00000000E+00  0.00000000E+00  0.00000000E+00
  0.00000000E+00  0.00000000E+00  0.00000000E+00
  0.00000000E+00  0.00000000E+00  0.00000000E+00
  0.00000000E+00  0.00000000E+00  0.00000000E+00
  0.00000000E+00  0.00000000E+00  0.00000000E+00
  0.00000000E+00  0.00000000E+00  0.00000000E+00
  0.00000000E+00  0.00000000E+00  0.00000000E+00
  0.00000000E+00  0.00000000E+00  0.00000000E+00
  0.00000000E+00  0.00000000E+00  0.00000000E+00
  0.00000000E+00  0.00000000E+00  0.00000000E+00
  0.00000000E+00  0.00000000E+00  0.00000000E+00
  0.00000000E+00  0.00000000E+00  0.00000000E+00
  0.00000000E+00  0.00000000E+00  0.00000000E+00
  0.00000000E+00  0.00000000E+00  0.00000000E+00
  0.00000000E+00  0.00000000E+00  0.00000000E+00
  0.00000000E+00  0.00000000E+00  0.00000000E+00
  0.00000000E+00  0.00000000E+00  0.00000000E+00
  0.00000000E+00  0.00000000E+00  0.00000000E+00
  0.00000000E+00  0.00000000E+00  0.00000000E+00
  0.00000000E+00  0.00000000E+00  0.00000000E+00
  0.00000000E+00  0.00000000E+00  0.00000000E+00
  0.00000000E+00  0.00000000E+00  0.00000000E+00
  0.00000000E+00  0.00000000E+00  0.00000000E+00
  0.00000000E+00  0.00000000E+00  0.00000000E+00
  0.00000000E+00  0.00000000E+00  0.00000000E+00
  0.00000000E+00  0.00000000E+00  0.00000000E+00
  0.00000000E+00  0.00000000E+00  0.00000000E+00
  0.00000000E+00  0.00000000E+00  0.00000000E+00
  0.00000000E+00  0.00000000E+00  0.00000000E+00
  0.00000000E+00  0.00000000E+00  0.00000000E+00
  0.00000000E+00  0.00000000E+00  0.00000000E+00
  0.00000000E+00  0.00000000E+00  0.00000000E+00
  0.00000000E+00  0.00000000E+00  0.00000000E+00
  0.00000000E+00  0.00000000E+00  0.00000000E+00
  0.00000000E+00  0.00000000E+00  0.00000000E+00
  0.00000000E+00  0.00000000E+00  0.00000000E+00
  0.00000000E+00  0.00000000E+00  0.00000000E+00
  0.00000000E+00  0.00000000E+00  0.00000000E+00
  0.00000000E+00  0.00000000E+00  0.00000000E+00
  0.00000000E+00  0.00000000E+00  0.00000000E+00
  0.00000000E+00  0.00000000E+00  0.00000000E+00
  0.00000000E+00  0.00000000E+00  0.00000000E+00
  0.00000000E+00  0.00000000E+00  0.00000000E+00
  0.00000000E+00  0.00000000E+00  0.00000000E+00
  0.00000000E+00  0.00000000E+00  0.00000000E+00
  0.00000000E+00  0.00000000E+00  0.00000000E+00
  0.00000000E+00  0.00000000E+00  0.00000000E+00
  0.00000000E+00  0.00000000E+00  0.00000000E+00
  0.00000000E+00  0.00000000E+00  0.00000000E+00
  0.00000000E+00  0.00000000E+00  0.00000000E+00
  0.00000000E+00  0.00000000E+00  0.00000000E+00
  0.00000000E+00  0.00000000E+00  0.00000000E+00
  0.00000000E+00  0.00000000E+00  0.00000000E+00
  0.00000000E+00  0.00000000E+00  0.00000000E+00
  0.00000000E+00  0.00000000E+00  0.00000000E+00
  0.00000000E+00  0.00000000E+00  0.00000000E+00
  0.00000000E+00  0.00000000E+00  0.00000000E+00
  0.00000000E+00  0.00000000E+00  0.00000000E+00
  0.00000000E+00  0.00000000E+00  0.00000000E+00
  0.00000000E+00  0.00000000E+00  0.00000000E+00
  0.00000000E+00  0.00000000E+00  0.00000000E+00
  0.00000000E+00  0.00000000E+00  0.00000000E+00
  0.00000000E+00  0.00000000E+00  0.00000000E+00
  0.00000000E+00  0.00000000E+00  0.00000000E+00
  0.00000000E+00  0.00000000E+00  0.00000000E+00
  0.00000000E+00  0.00000000E+00  0.00000000E+00
  0.00000000E+00  0.00000000E+00  0.00000000E+00
  0.00000000E+00  0.00000000E+00  0.00000000E+00
  0.00000000E+00  0.00000000E+00  0.00000000E+00
  0.00000000E+00  0.00000000E+00  0.00000000E+00
  0.00000000E+00  0.00000000E+00  0.00000000E+00
  0.00000000E+00  0.00000000E+00  0.00000000E+00
  0.00000000E+00  0.00000000E+00  0.00000000E+00
  0.00000000E+00  0.00000000E+00  0.00000000E+00
  0.00000000E+00  0.00000000E+00  0.00000000E+00
  0.00000000E+00  0.00000000E+00  0.00000000E+00
  0.00000000E+00  0.00000000E+00  0.00000000E+00
  0.00000000E+00  0.00000000E+00  0.00000000E+00
  0.00000000E+00  0.00000000E+00  0.00000000E+00
  0.00000000E+00  0.00000000E+00  0.00000000E+00
  0.00000000E+00  0.00000000E+00  0.00000000E+00
  0.00000000E+00  0.00000000E+00  0.00000000E+00
  0.00000000E+00  0.00000000E+00  0.00000000E+00
  0.00000000E+00  0.00000000E+00  0.00000000E+00
  0.00000000E+00  0.00000000E+00  0.00000000E+00
  0.00000000E+00  0.00000000E+00  0.00000000E+00
  0.00000000E+00  0.00000000E+00  0.00000000E+00
  0.00000000E+00  0.00000000E+00  0.00000000E+00
  0.00000000E+00  0.00000000E+00  0.00000000E+00
  0.00000000E+00  0.00000000E+00  0.00000000E+00
  0.00000000E+00  0.00000000E+00  0.00000000E+00
  0.00000000E+00  0.00000000E+00  0.00000000E+00
  0.00000000E+00  0.00000000E+00  0.00000000E+00
  0.00000000E+00  0.00000000E+00  0.00000000E+00
  0.00000000E+00  0.00000000E+00  0.00000000E+00
  0.00000000E+00  0.00000000E+00  0.00000000E+00
  0.00000000E+00  0.00000000E+00  0.00000000E+00
  0.00000000E+00  0.00000000E+00  0.00000000E+00
  0.00000000E+00  0.00000000E+00  0.00000000E+00
  0.00000000E+00  0.00000000E+00  0.00000000E+00
  0.00000000E+00  0.00000000E+00  0.00000000E+00
  0.00000000E+00  0.00000000E+00  0.00000000E+00
  0.00000000E+00  0.00000000E+00  0.00000000E+00
  0.00000000E+00  0.00000000E+00  0.00000000E+00
  0.00000000E+00  0.00000000E+00  0.00000000E+00