Ni  O                                   
    1.000000000000000     
    15.1462217587961998    0.0000000000000000    0.0000000000000000
     7.5731108793980804   13.1170128144700993    0.0000000000000000
     0.0000000000000000    0.0000000000000000   37.5999999999999943
   Ni   O 
   252   128
Direct
  0.4444062877356140  0.4444062877356140  0.0676230301621071
  0.4443597723544218  0.7778201138227893  0.0676560584346578
  0.4444062877356140  0.1111874245287718  0.0676230301621071
  0.7778201138227893  0.4443597723544218  0.0676560584346578
  0.7778201138227893  0.7778201138227893  0.0676560584346578
  0.7776924398747068  0.1111537800626502  0.0676091314353088
  0.1111874245287718  0.4444062877356140  0.0676230301621071
  0.1111537800626502  0.7776924398747068  0.0676091314353088
  0.1111537800626502  0.1111537800626502  0.0676091314353088
  0.5555752418073834  0.5555752418073834  0.1220127359530927
  0.5555752418073834  0.8888495163852331  0.1220127359530927
  0.5556906415725635  0.2221546792137181  0.1219478855142472
  0.8888495163852331  0.5555752418073834  0.1220127359530927
  0.8889394554738522  0.8889394554738522  0.1220925036283855
  0.8889394554738522  0.2221210890522879  0.1220925036283855
  0.2221546792137181  0.5556906415725635  0.1219478855142472
  0.2221210890522879  0.8889394554738522  0.1220925036283855
  0.2221546792137181  0.2221546792137181  0.1219478855142472
  0.6666666666666643  0.6666666666666643  0.1804241714610157
  0.6668019602853950  0.0000401403697705  0.1805362381884771
  0.6668019602853950  0.3331578993448347  0.1805362381884771
  0.0000401403697705  0.6668019602853950  0.1805362381884771
  0.0000000000000000 -0.0000000000000000  0.1806092545594015
  0.0000401403697705  0.3331578993448347  0.1805362381884771
  0.3331578993448347  0.6668019602853950  0.1805362381884771
  0.3331578993448347  0.0000401403697705  0.1805362381884771
  0.3333333333333357  0.3333333333333357  0.1805175531709654
  0.7777450594201877  0.7777450594201877  0.2398791897672697
  0.7776978147239575  0.1111510926380247  0.2400113577354592
  0.7777450594201877  0.4445098811596245  0.2398791897672697
  0.1111510926380247  0.7776978147239575  0.2400113577354592
  0.1111510926380247  0.1111510926380247  0.2400113577354592
  0.1111909176079672  0.4444045411960164  0.2402420946040287
  0.4445098811596245  0.7777450594201877  0.2398791897672697
  0.4444045411960164  0.1111909176079672  0.2402420946040287
  0.4444045411960164  0.4444045411960164  0.2402420946040287
  0.8883296642704884  0.8883296642704884  0.2959120797318621
  0.8883296642704884  0.2233406714590159  0.2959120797318621
  0.8891080092434729  0.5554459953782633  0.2976890597428746
  0.2233406714590159  0.8883296642704884  0.2959120797318621
  0.2226233347349388  0.2226233347349388  0.2966874011078209
  0.2226233347349388  0.5547533305301225  0.2966874011078209
  0.5554459953782633  0.8891080092434729  0.2976890597428746
  0.5547533305301225  0.2226233347349388  0.2966874011078209
  0.5554459953782633  0.5554459953782633  0.2976890597428746
  0.0000000000000000 -0.0000000000000000  0.3505695815197814
 -0.0011858770985776  0.3338504956215437  0.3487912613284959
 -0.0011858770985776  0.6673353814770340  0.3487912613284959
  0.3338504956215437 -0.0011858770985776  0.3487912613284959
  0.3333333333333357  0.3333333333333357  0.3484652503782668
  0.3338504956215437  0.6673353814770340  0.3487912613284959
  0.6673353814770340 -0.0011858770985776  0.3487912613284959
  0.6673353814770340  0.3338504956215437  0.3487912613284959
  0.6666666666666643  0.6666666666666643  0.3470239639945979
  0.1075562418389347  0.1075562418389347  0.3970911838701314
  0.1126010258209273  0.4436994870895365  0.4014693118798367
  0.1075562418389347  0.7848875163221376  0.3970911838701313
  0.4436994870895365  0.1126010258209273  0.4014693118798367
  0.4436994870895365  0.4436994870895365  0.4014693118798367
  0.4448006401657565  0.7775996799171220  0.4010198287305596
  0.7848875163221376  0.1075562418389347  0.3970911838701314
  0.7775996799171220  0.4448006401657565  0.4010198287305597
  0.7775996799171220  0.7775996799171220  0.4010198287305597
  0.2778201138227890  0.2778201138227890  0.0676560584346578
  0.2776924398747069  0.6111537800626503  0.0676091314353088
  0.2778201138227890  0.9443597723544219  0.0676560584346578
  0.6111537800626503  0.2776924398747069  0.0676091314353088
  0.6111537800626503  0.6111537800626503  0.0676091314353088
  0.6111874245287721  0.9444062877356141  0.0676230301621071
  0.9443597723544219  0.2778201138227890  0.0676560584346578
  0.9444062877356141  0.6111874245287721  0.0676230301621071
  0.9444062877356141  0.9444062877356141  0.0676230301621071
  0.3889394554738526  0.3889394554738526  0.1220925036283855
  0.3889394554738526  0.7221210890522877  0.1220925036283855
  0.3888495163852331  0.0555752418073834  0.1220127359530927
  0.7221210890522877  0.3889394554738526  0.1220925036283855
  0.7221546792137182  0.7221546792137182  0.1219478855142472
  0.7221546792137182  0.0556906415725637  0.1219478855142472
  0.0555752418073834  0.3888495163852331  0.1220127359530927
  0.0556906415725637  0.7221546792137182  0.1219478855142472
  0.0555752418073834  0.0555752418073834  0.1220127359530927
  0.5000000000000000  0.5000000000000000  0.1806092545594015
  0.5000401403697706  0.8331578993448345  0.1805362381884771
  0.5000401403697706  0.1668019602853949  0.1805362381884771
  0.8331578993448345  0.5000401403697706  0.1805362381884771
  0.8333333333333357  0.8333333333333357  0.1805175531709654
  0.8331578993448345  0.1668019602853949  0.1805362381884771
  0.1668019602853949  0.5000401403697706  0.1805362381884771
  0.1668019602853949  0.8331578993448345  0.1805362381884771
  0.1666666666666643  0.1666666666666643  0.1804241714610157
  0.6111510926380246  0.6111510926380246  0.2400113577354592
  0.6111909176079672  0.9444045411960164  0.2402420946040287
  0.6111510926380246  0.2776978147239578  0.2400113577354592
  0.9444045411960164  0.6111909176079672  0.2402420946040287
  0.9444045411960164  0.9444045411960164  0.2402420946040287
  0.9445098811596245  0.2777450594201877  0.2398791897672697
  0.2776978147239578  0.6111510926380246  0.2400113577354592
  0.2777450594201877  0.9445098811596245  0.2398791897672697
  0.2777450594201877  0.2777450594201877  0.2398791897672697
  0.7226233347349387  0.7226233347349387  0.2966874011078209
  0.7226233347349387  0.0547533305301225  0.2966874011078209
  0.7233406714590158  0.3883296642704885  0.2959120797318621
  0.0547533305301225  0.7226233347349387  0.2966874011078209
  0.0554459953782635  0.0554459953782635  0.2976890597428746
  0.0554459953782635  0.3891080092434731  0.2976890597428746
  0.3883296642704885  0.7233406714590158  0.2959120797318621
  0.3891080092434731  0.0554459953782635  0.2976890597428746
  0.3883296642704885  0.3883296642704885  0.2959120797318621
  0.8333333333333357  0.8333333333333357  0.3484652503782668
  0.8338504956215435  0.1673353814770339  0.3487912613284959
  0.8338504956215435  0.4988141229014224  0.3487912613284959
  0.1673353814770339  0.8338504956215435  0.3487912613284959
  0.1666666666666643  0.1666666666666643  0.3470239639945979
  0.1673353814770339  0.4988141229014224  0.3487912613284959
  0.4988141229014224  0.8338504956215435  0.3487912613284959
  0.4988141229014224  0.1673353814770339  0.3487912613284959
  0.5000000000000000  0.5000000000000000  0.3505695815197814
  0.9436994870895364  0.9436994870895364  0.4014693118798367
  0.9448006401657564  0.2775996799171218  0.4010198287305597
  0.9436994870895364  0.6126010258209270  0.4014693118798367
  0.2775996799171218  0.9448006401657564  0.4010198287305596
  0.2775996799171218  0.2775996799171218  0.4010198287305597
  0.2848875163221378  0.6075562418389345  0.3970911838701313
  0.6126010258209270  0.9436994870895364  0.4014693118798367
  0.6075562418389345  0.2848875163221378  0.3970911838701313
  0.6075562418389345  0.6075562418389345  0.3970911838701313
  0.2778201138227890  0.4443597723544218  0.0676560584346578
  0.2778201138227890  0.7778201138227893  0.0676560584346578
  0.2776924398747069  0.1111537800626502  0.0676091314353088
  0.6111874245287721  0.4444062877356140  0.0676230301621071
  0.6111537800626503  0.7776924398747068  0.0676091314353088
  0.6111537800626503  0.1111537800626502  0.0676091314353088
  0.9444062877356141  0.4444062877356140  0.0676230301621071
  0.9443597723544219  0.7778201138227893  0.0676560584346578
  0.9444062877356141  0.1111874245287718  0.0676230301621071
  0.3888495163852331  0.5555752418073834  0.1220127359530927
  0.3889394554738526  0.8889394554738522  0.1220925036283855
  0.3889394554738526  0.2221210890522879  0.1220925036283855
  0.7221546792137182  0.5556906415725635  0.1219478855142472
  0.7221210890522877  0.8889394554738522  0.1220925036283855
  0.7221546792137182  0.2221546792137181  0.1219478855142472
  0.0555752418073834  0.5555752418073834  0.1220127359530927
  0.0555752418073834  0.8888495163852331  0.1220127359530927
  0.0556906415725637  0.2221546792137181  0.1219478855142472
  0.5000401403697706  0.6668019602853950  0.1805362381884771
  0.5000000000000000 -0.0000000000000000  0.1806092545594015
  0.5000401403697706  0.3331578993448347  0.1805362381884771
  0.8331578993448345  0.6668019602853950  0.1805362381884771
  0.8331578993448345  0.0000401403697705  0.1805362381884771
  0.8333333333333357  0.3333333333333357  0.1805175531709654
  0.1666666666666643  0.6666666666666643  0.1804241714610157
  0.1668019602853949  0.0000401403697705  0.1805362381884771
  0.1668019602853949  0.3331578993448347  0.1805362381884771
  0.6111510926380246  0.7776978147239575  0.2400113577354592
  0.6111510926380246  0.1111510926380247  0.2400113577354592
  0.6111909176079672  0.4444045411960164  0.2402420946040287
  0.9445098811596245  0.7777450594201877  0.2398791897672697
  0.9444045411960164  0.1111909176079672  0.2402420946040287
  0.9444045411960164  0.4444045411960164  0.2402420946040287
  0.2777450594201877  0.7777450594201877  0.2398791897672697
  0.2776978147239578  0.1111510926380247  0.2400113577354592
  0.2777450594201877  0.4445098811596245  0.2398791897672697
  0.7233406714590158  0.8883296642704884  0.2959120797318621
  0.7226233347349387  0.2226233347349388  0.2966874011078209
  0.7226233347349387  0.5547533305301225  0.2966874011078209
  0.0554459953782635  0.8891080092434729  0.2976890597428746
  0.0547533305301225  0.2226233347349388  0.2966874011078209
  0.0554459953782635  0.5554459953782633  0.2976890597428746
  0.3883296642704885  0.8883296642704884  0.2959120797318621
  0.3883296642704885  0.2233406714590159  0.2959120797318621
  0.3891080092434731  0.5554459953782633  0.2976890597428746
  0.8338504956215435 -0.0011858770985776  0.3487912613284959
  0.8333333333333357  0.3333333333333357  0.3484652503782668
  0.8338504956215435  0.6673353814770340  0.3487912613284959
  0.1673353814770339 -0.0011858770985776  0.3487912613284959
  0.1673353814770339  0.3338504956215437  0.3487912613284959
  0.1666666666666643  0.6666666666666643  0.3470239639945979
  0.5000000000000000 -0.0000000000000000  0.3505695815197814
  0.4988141229014224  0.3338504956215437  0.3487912613284959
  0.4988141229014224  0.6673353814770340  0.3487912613284959
  0.9436994870895364  0.1126010258209273  0.4014693118798366
  0.9436994870895364  0.4436994870895365  0.4014693118798367
  0.9448006401657564  0.7775996799171220  0.4010198287305597
  0.2848875163221378  0.1075562418389347  0.3970911838701313
  0.2775996799171218  0.4448006401657565  0.4010198287305597
  0.2775996799171218  0.7775996799171220  0.4010198287305597
  0.6075562418389345  0.1075562418389347  0.3970911838701313
  0.6126010258209270  0.4436994870895365  0.4014693118798367
  0.6075562418389345  0.7848875163221376  0.3970911838701313
  0.4443597723544218  0.2778201138227890  0.0676560584346578
  0.4444062877356140  0.6111874245287721  0.0676230301621071
  0.4444062877356140  0.9444062877356141  0.0676230301621071
  0.7778201138227893  0.2778201138227890  0.0676560584346578
  0.7776924398747068  0.6111537800626503  0.0676091314353088
  0.7778201138227893  0.9443597723544219  0.0676560584346578
  0.1111537800626502  0.2776924398747069  0.0676091314353088
  0.1111537800626502  0.6111537800626503  0.0676091314353088
  0.1111874245287718  0.9444062877356141  0.0676230301621071
  0.5555752418073834  0.3888495163852331  0.1220127359530927
  0.5556906415725635  0.7221546792137182  0.1219478855142472
  0.5555752418073834  0.0555752418073834  0.1220127359530927
  0.8889394554738522  0.3889394554738526  0.1220925036283855
  0.8889394554738522  0.7221210890522877  0.1220925036283855
  0.8888495163852331  0.0555752418073834  0.1220127359530927
  0.2221210890522879  0.3889394554738526  0.1220925036283855
  0.2221546792137181  0.7221546792137182  0.1219478855142472
  0.2221546792137181  0.0556906415725637  0.1219478855142472
  0.6668019602853950  0.5000401403697706  0.1805362381884771
  0.6668019602853950  0.8331578993448345  0.1805362381884771
  0.6666666666666643  0.1666666666666643  0.1804241714610157
  0.0000000000000000  0.5000000000000000  0.1806092545594015
  0.0000401403697705  0.8331578993448345  0.1805362381884771
  0.0000401403697705  0.1668019602853949  0.1805362381884771
  0.3331578993448347  0.5000401403697706  0.1805362381884771
  0.3333333333333357  0.8333333333333357  0.1805175531709654
  0.3331578993448347  0.1668019602853949  0.1805362381884771
  0.7776978147239575  0.6111510926380246  0.2400113577354592
  0.7777450594201877  0.9445098811596245  0.2398791897672697
  0.7777450594201877  0.2777450594201877  0.2398791897672697
  0.1111510926380247  0.6111510926380246  0.2400113577354592
  0.1111909176079672  0.9444045411960164  0.2402420946040287
  0.1111510926380247  0.2776978147239578  0.2400113577354592
  0.4444045411960164  0.6111909176079672  0.2402420946040287
  0.4444045411960164  0.9444045411960164  0.2402420946040287
  0.4445098811596245  0.2777450594201877  0.2398791897672697
  0.8883296642704884  0.7233406714590158  0.2959120797318621
  0.8891080092434729  0.0554459953782635  0.2976890597428746
  0.8883296642704884  0.3883296642704885  0.2959120797318621
  0.2226233347349388  0.7226233347349387  0.2966874011078209
  0.2226233347349388  0.0547533305301225  0.2966874011078209
  0.2233406714590159  0.3883296642704885  0.2959120797318621
  0.5547533305301225  0.7226233347349387  0.2966874011078209
  0.5554459953782633  0.0554459953782635  0.2976890597428746
  0.5554459953782633  0.3891080092434731  0.2976890597428746
 -0.0011858770985776  0.8338504956215435  0.3487912613284959
 -0.0011858770985776  0.1673353814770339  0.3487912613284959
  0.0000000000000000  0.5000000000000000  0.3505695815197814
  0.3333333333333357  0.8333333333333357  0.3484652503782668
  0.3338504956215437  0.1673353814770339  0.3487912613284959
  0.3338504956215437  0.4988141229014224  0.3487912613284959
  0.6673353814770340  0.8338504956215435  0.3487912613284959
  0.6666666666666643  0.1666666666666643  0.3470239639945979
  0.6673353814770340  0.4988141229014224  0.3487912613284959
  0.1126010258209273  0.9436994870895364  0.4014693118798367
  0.1075562418389347  0.2848875163221378  0.3970911838701313
  0.1075562418389347  0.6075562418389345  0.3970911838701314
  0.4436994870895365  0.9436994870895364  0.4014693118798367
  0.4448006401657565  0.2775996799171218  0.4010198287305596
  0.4436994870895365  0.6126010258209270  0.4014693118798367
  0.7775996799171220  0.9448006401657564  0.4010198287305597
  0.7775996799171220  0.2775996799171218  0.4010198287305597
  0.7848875163221376  0.6075562418389345  0.3970911838701313
  0.0000000000000000 -0.0000000000000000  0.4629425666907472
  0.0000000000000000 -0.0000000000000000  0.4955776899223268
  0.0050028730106309  0.1263108206791948  0.4642716975697701
  0.0049047777707909  0.1252865948458419  0.4967871222397536
  0.0139916639203042  0.2430041680398479  0.4641466535984786
  0.0133395625159696  0.2433302187420152  0.4982210081303604
  0.0050028730106309  0.3686863063101744  0.4642716975697701
  0.0049047777707909  0.3698086273833672  0.4967871222397536
  0.0000000000000000  0.5000000000000000  0.4629425666907472
  0.0000000000000000  0.5000000000000000  0.4955776899223268
  0.0050028730106309  0.6263108206791947  0.4642716975697701
  0.0049047777707909  0.6252865948458421  0.4967871222397536
  0.0139916639203042  0.7430041680398480  0.4641466535984786
  0.0133395625159696  0.7433302187420151  0.4982210081303604
  0.0050028730106309  0.8686863063101744  0.4642716975697701
  0.0049047777707909  0.8698086273833670  0.4967871222397536
  0.1263108206791948  0.0050028730106309  0.4642716975697701
  0.1252865948458419  0.0049047777707909  0.4967871222397536
  0.1267522498331965  0.1267522498331965  0.4413530503706550
  0.1331582619412097  0.1331582619412096  0.5324615823487535
  0.1267522498331965  0.2464955003336071  0.4413530503706550
  0.1331582619412096  0.2336834761175807  0.5324615823487535
  0.1263108206791948  0.3686863063101744  0.4642716975697701
  0.1252865948458419  0.3698086273833672  0.4967871222397536
  0.1263108206791948  0.5050028730106311  0.4642716975697701
  0.1252865948458419  0.5049047777707907  0.4967871222397536
  0.1267522498331965  0.6267522498331963  0.4413530503706550
  0.1331582619412097  0.6331582619412097  0.5324615823487535
  0.1267522498331965  0.7464955003336069  0.4413530503706550
  0.1331582619412096  0.7336834761175810  0.5324615823487535
  0.1263108206791948  0.8686863063101744  0.4642716975697701
  0.1252865948458419  0.8698086273833670  0.4967871222397536
  0.2430041680398479  0.0139916639203042  0.4641466535984786
  0.2433302187420152  0.0133395625159696  0.4982210081303604
  0.2464955003336071  0.1267522498331965  0.4413530503706550
  0.2336834761175807  0.1331582619412096  0.5324615823487535
  0.2430041680398479  0.2430041680398479  0.4641466535984786
  0.2433302187420152  0.2433302187420152  0.4982210081303604
  0.2484012077592605  0.3757993961203698  0.4640882078845376
  0.2488465792013508  0.3755767103993246  0.4967933586434083
  0.2430041680398479  0.5139916639203042  0.4641466535984786
  0.2433302187420152  0.5133395625159696  0.4982210081303604
  0.2464955003336071  0.6267522498331963  0.4413530503706550
  0.2336834761175807  0.6331582619412097  0.5324615823487535
  0.2430041680398479  0.7430041680398480  0.4641466535984786
  0.2433302187420152  0.7433302187420151  0.4982210081303604
  0.2484012077592605  0.8757993961203697  0.4640882078845376
  0.2488465792013508  0.8755767103993245  0.4967933586434082
  0.3686863063101743  0.0050028730106309  0.4642716975697701
  0.3698086273833672  0.0049047777707909  0.4967871222397536
  0.3686863063101744  0.1263108206791948  0.4642716975697701
  0.3698086273833672  0.1252865948458419  0.4967871222397536
  0.3757993961203698  0.2484012077592605  0.4640882078845376
  0.3755767103993246  0.2488465792013508  0.4967933586434083
  0.3757993961203698  0.3757993961203698  0.4640882078845376
  0.3755767103993246  0.3755767103993246  0.4967933586434083
  0.3686863063101743  0.5050028730106311  0.4642716975697701
  0.3698086273833672  0.5049047777707907  0.4967871222397536
  0.3686863063101744  0.6263108206791947  0.4642716975697701
  0.3698086273833672  0.6252865948458421  0.4967871222397536
  0.3757993961203698  0.7484012077592604  0.4640882078845376
  0.3755767103993246  0.7488465792013509  0.4967933586434083
  0.3757993961203698  0.8757993961203697  0.4640882078845376
  0.3755767103993246  0.8755767103993245  0.4967933586434083
  0.5000000000000000 -0.0000000000000000  0.4629425666907472
  0.5000000000000000 -0.0000000000000000  0.4955776899223268
  0.5050028730106311  0.1263108206791948  0.4642716975697701
  0.5049047777707907  0.1252865948458419  0.4967871222397536
  0.5139916639203042  0.2430041680398479  0.4641466535984786
  0.5133395625159696  0.2433302187420152  0.4982210081303604
  0.5050028730106311  0.3686863063101744  0.4642716975697701
  0.5049047777707907  0.3698086273833672  0.4967871222397536
  0.5000000000000000  0.5000000000000000  0.4629425666907472
  0.5000000000000000  0.5000000000000000  0.4955776899223268
  0.5050028730106311  0.6263108206791947  0.4642716975697701
  0.5049047777707907  0.6252865948458421  0.4967871222397536
  0.5139916639203042  0.7430041680398480  0.4641466535984786
  0.5133395625159696  0.7433302187420151  0.4982210081303604
  0.5050028730106311  0.8686863063101744  0.4642716975697701
  0.5049047777707907  0.8698086273833670  0.4967871222397536
  0.6263108206791947  0.0050028730106309  0.4642716975697701
  0.6252865948458421  0.0049047777707909  0.4967871222397536
  0.6267522498331963  0.1267522498331965  0.4413530503706550
  0.6331582619412097  0.1331582619412096  0.5324615823487535
  0.6267522498331963  0.2464955003336071  0.4413530503706550
  0.6331582619412097  0.2336834761175807  0.5324615823487535
  0.6263108206791947  0.3686863063101744  0.4642716975697701
  0.6252865948458421  0.3698086273833672  0.4967871222397536
  0.6263108206791947  0.5050028730106311  0.4642716975697701
  0.6252865948458421  0.5049047777707907  0.4967871222397536
  0.6267522498331963  0.6267522498331963  0.4413530503706550
  0.6331582619412097  0.6331582619412097  0.5324615823487535
  0.6267522498331963  0.7464955003336069  0.4413530503706550
  0.6331582619412097  0.7336834761175810  0.5324615823487535
  0.6263108206791947  0.8686863063101744  0.4642716975697701
  0.6252865948458421  0.8698086273833670  0.4967871222397536
  0.7430041680398480  0.0139916639203042  0.4641466535984786
  0.7433302187420151  0.0133395625159696  0.4982210081303604
  0.7464955003336069  0.1267522498331965  0.4413530503706550
  0.7336834761175810  0.1331582619412096  0.5324615823487535
  0.7430041680398480  0.2430041680398479  0.4641466535984786
  0.7433302187420151  0.2433302187420152  0.4982210081303604
  0.7484012077592604  0.3757993961203698  0.4640882078845376
  0.7488465792013509  0.3755767103993246  0.4967933586434083
  0.7430041680398480  0.5139916639203042  0.4641466535984786
  0.7433302187420151  0.5133395625159696  0.4982210081303604
  0.7464955003336069  0.6267522498331963  0.4413530503706550
  0.7336834761175810  0.6331582619412097  0.5324615823487535
  0.7430041680398480  0.7430041680398480  0.4641466535984786
  0.7433302187420151  0.7433302187420151  0.4982210081303604
  0.7484012077592604  0.8757993961203697  0.4640882078845376
  0.7488465792013509  0.8755767103993245  0.4967933586434083
  0.8686863063101744  0.0050028730106309  0.4642716975697701
  0.8698086273833670  0.0049047777707909  0.4967871222397536
  0.8686863063101744  0.1263108206791948  0.4642716975697701
  0.8698086273833670  0.1252865948458419  0.4967871222397536
  0.8757993961203697  0.2484012077592605  0.4640882078845376
  0.8755767103993245  0.2488465792013508  0.4967933586434083
  0.8757993961203697  0.3757993961203698  0.4640882078845376
  0.8755767103993245  0.3755767103993246  0.4967933586434082
  0.8686863063101744  0.5050028730106311  0.4642716975697701
  0.8698086273833670  0.5049047777707907  0.4967871222397536
  0.8686863063101744  0.6263108206791947  0.4642716975697701
  0.8698086273833670  0.6252865948458421  0.4967871222397536
  0.8757993961203697  0.7484012077592604  0.4640882078845376
  0.8755767103993245  0.7488465792013509  0.4967933586434083
  0.8757993961203697  0.8757993961203697  0.4640882078845376
  0.8755767103993245  0.8755767103993245  0.4967933586434083
 
  0.00000000E+00  0.00000000E+00  0.00000000E+00
  0.00000000E+00  0.00000000E+00  0.00000000E+00
  0.00000000E+00  0.00000000E+00  0.00000000E+00
  0.00000000E+00  0.00000000E+00  0.00000000E+00
  0.00000000E+00  0.00000000E+00  0.00000000E+00
  0.00000000E+00  0.00000000E+00  0.00000000E+00
  0.00000000E+00  0.00000000E+00  0.00000000E+00
  0.00000000E+00  0.00000000E+00  0.00000000E+00
  0.00000000E+00  0.00000000E+00  0.00000000E+00
  0.00000000E+00  0.00000000E+00  0.00000000E+00
  0.00000000E+00  0.00000000E+00  0.00000000E+00
  0.00000000E+00  0.00000000E+00  0.00000000E+00
  0.00000000E+00  0.00000000E+00  0.00000000E+00
  0.00000000E+00  0.00000000E+00  0.00000000E+00
  0.00000000E+00  0.00000000E+00  0.00000000E+00
  0.00000000E+00  0.00000000E+00  0.00000000E+00
  0.00000000E+00  0.00000000E+00  0.00000000E+00
  0.00000000E+00  0.00000000E+00  0.00000000E+00
  0.00000000E+00  0.00000000E+00  0.00000000E+00
  0.00000000E+00  0.00000000E+00  0.00000000E+00
  0.00000000E+00  0.00000000E+00  0.00000000E+00
  0.00000000E+00  0.00000000E+00  0.00000000E+00
  0.00000000E+00  0.00000000E+00  0.00000000E+00
  0.00000000E+00  0.00000000E+00  0.00000000E+00
  0.00000000E+00  0.00000000E+00  0.00000000E+00
  0.00000000E+00  0.00000000E+00  0.00000000E+00
  0.00000000E+00  0.00000000E+00  0.00000000E+00
  0.00000000E+00  0.00000000E+00  0.00000000E+00
  0.00000000E+00  0.00000000E+00  0.00000000E+00
  0.00000000E+00  0.00000000E+00  0.00000000E+00
  0.00000000E+00  0.00000000E+00  0.00000000E+00
  0.00000000E+00  0.00000000E+00  0.00000000E+00
  0.00000000E+00  0.00000000E+00  0.00000000E+00
  0.00000000E+00  0.00000000E+00  0.00000000E+00
  0.00000000E+00  0.00000000E+00  0.00000000E+00
  0.00000000E+00  0.00000000E+00  0.00000000E+00
  0.00000000E+00  0.00000000E+00  0.00000000E+00
  0.00000000E+00  0.00000000E+00  0.00000000E+00
  0.00000000E+00  0.00000000E+00  0.00000000E+00
  0.00000000E+00  0.00000000E+00  0.00000000E+00
  0.00000000E+00  0.00000000E+00  0.00000000E+00
  0.00000000E+00  0.00000000E+00  0.00000000E+00
  0.00000000E+00  0.00000000E+00  0.00000000E+00
  0.00000000E+00  0.00000000E+00  0.00000000E+00
  0.00000000E+00  0.00000000E+00  0.00000000E+00
  0.00000000E+00  0.00000000E+00  0.00000000E+00
  0.00000000E+00  0.00000000E+00  0.00000000E+00
  0.00000000E+00  0.00000000E+00  0.00000000E+00
  0.00000000E+00  0.00000000E+00  0.00000000E+00
  0.00000000E+00  0.00000000E+00  0.00000000E+00
  0.00000000E+00  0.00000000E+00  0.00000000E+00
  0.00000000E+00  0.00000000E+00  0.00000000E+00
  0.00000000E+00  0.00000000E+00  0.00000000E+00
  0.00000000E+00  0.00000000E+00  0.00000000E+00
  0.00000000E+00  0.00000000E+00  0.00000000E+00
  0.00000000E+00  0.00000000E+00  0.00000000E+00
  0.00000000E+00  0.00000000E+00  0.00000000E+00
  0.00000000E+00  0.00000000E+00  0.00000000E+00
  0.00000000E+00  0.00000000E+00  0.00000000E+00
  0.00000000E+00  0.00000000E+00  0.00000000E+00
  0.00000000E+00  0.00000000E+00  0.00000000E+00
  0.00000000E+00  0.00000000E+00  0.00000000E+00
  0.00000000E+00  0.00000000E+00  0.00000000E+00
  0.00000000E+00  0.00000000E+00  0.00000000E+00
  0.00000000E+00  0.00000000E+00  0.00000000E+00
  0.00000000E+00  0.00000000E+00  0.00000000E+00
  0.00000000E+00  0.00000000E+00  0.00000000E+00
  0.00000000E+00  0.00000000E+00  0.00000000E+00
  0.00000000E+00  0.00000000E+00  0.00000000E+00
  0.00000000E+00  0.00000000E+00  0.00000000E+00
  0.00000000E+00  0.00000000E+00  0.00000000E+00
  0.00000000E+00  0.00000000E+00  0.00000000E+00
  0.00000000E+00  0.00000000E+00  0.00000000E+00
  0.00000000E+00  0.00000000E+00  0.00000000E+00
  0.00000000E+00  0.00000000E+00  0.00000000E+00
  0.00000000E+00  0.00000000E+00  0.00000000E+00
  0.00000000E+00  0.00000000E+00  0.00000000E+00
  0.00000000E+00  0.00000000E+00  0.00000000E+00
  0.00000000E+00  0.00000000E+00  0.00000000E+00
  0.00000000E+00  0.00000000E+00  0.00000000E+00
  0.00000000E+00  0.00000000E+00  0.00000000E+00
  0.00000000E+00  0.00000000E+00  0.00000000E+00
  0.00000000E+00  0.00000000E+00  0.00000000E+00
  0.00000000E+00  0.00000000E+00  0.00000000E+00
  0.00000000E+00  0.00000000E+00  0.00000000E+00
  0.00000000E+00  0.00000000E+00  0.00000000E+00
  0.00000000E+00  0.00000000E+00  0.00000000E+00
  0.00000000E+00  0.00000000E+00  0.00000000E+00
  0.00000000E+00  0.00000000E+00  0.00000000E+00
  0.00000000E+00  0.00000000E+00  0.00000000E+00
  0.00000000E+00  0.00000000E+00  0.00000000E+00
  0.00000000E+00  0.00000000E+00  0.00000000E+00
  0.00000000E+00  0.00000000E+00  0.00000000E+00
  0.00000000E+00  0.00000000E+00  0.00000000E+00
  0.00000000E+00  0.00000000E+00  0.00000000E+00
  0.00000000E+00  0.00000000E+00  0.00000000E+00
  0.00000000E+00  0.00000000E+00  0.00000000E+00
  0.00000000E+00  0.00000000E+00  0.00000000E+00
  0.00000000E+00  0.00000000E+00  0.00000000E+00
  0.00000000E+00  0.00000000E+00  0.00000000E+00
  0.00000000E+00  0.00000000E+00  0.00000000E+00
  0.00000000E+00  0.00000000E+00  0.00000000E+00
  0.00000000E+00  0.00000000E+00  0.00000000E+00
  0.00000000E+00  0.00000000E+00  0.00000000E+00
  0.00000000E+00  0.00000000E+00  0.00000000E+00
  0.00000000E+00  0.00000000E+00  0.00000000E+00
  0.00000000E+00  0.00000000E+00  0.00000000E+00
  0.00000000E+00  0.00000000E+00  0.00000000E+00
  0.00000000E+00  0.00000000E+00  0.00000000E+00
  0.00000000E+00  0.00000000E+00  0.00000000E+00
  0.00000000E+00  0.00000000E+00  0.00000000E+00
  0.00000000E+00  0.00000000E+00  0.00000000E+00
  0.00000000E+00  0.00000000E+00  0.00000000E+00
  0.00000000E+00  0.00000000E+00  0.00000000E+00
  0.00000000E+00  0.00000000E+00  0.00000000E+00
  0.00000000E+00  0.00000000E+00  0.00000000E+00
  0.00000000E+00  0.00000000E+00  0.00000000E+00
  0.00000000E+00  0.00000000E+00  0.00000000E+00
  0.00000000E+00  0.00000000E+00  0.00000000E+00
  0.00000000E+00  0.00000000E+00  0.00000000E+00
  0.00000000E+00  0.00000000E+00  0.00000000E+00
  0.00000000E+00  0.00000000E+00  0.00000000E+00
  0.00000000E+00  0.00000000E+00  0.00000000E+00
  0.00000000E+00  0.00000000E+00  0.00000000E+00
  0.00000000E+00  0.00000000E+00  0.00000000E+00
  0.00000000E+00  0.00000000E+00  0.00000000E+00
  0.00000000E+00  0.00000000E+00  0.00000000E+00
  0.00000000E+00  0.00000000E+00  0.00000000E+00
  0.00000000E+00  0.00000000E+00  0.00000000E+00
  0.00000000E+00  0.00000000E+00  0.00000000E+00
  0.00000000E+00  0.00000000E+00  0.00000000E+00
  0.00000000E+00  0.00000000E+00  0.00000000E+00