Al  O                                   
    1.000000000000000     
    14.4150840000000002    0.0000000000000000    0.0000000000000000
    -7.2075420000000001   12.4838279999999990    0.0000000000000000
     0.0000000000000000    0.0000000000000000   31.1162540000000014
   Al   O 
   108   163
Direct
 -0.0005146176534545 -0.0002823904669188  0.0634870743941318
  0.1104634445594949  0.2218486362573605  0.0322768162039602
  0.1106289452607790  0.2218723357947423  0.1334177217110856
  0.2217405897064262  0.1108438739419546  0.0721346240394731
  0.2218451181264903  0.1108824921358817  0.2019913115616811
 -0.0005343580085542 -0.0004402909732441  0.1480318470024161
  0.0000956741165502 -0.0000347854790698  0.2737070531079857
  0.1103811026271121  0.2217895523553597  0.2189593075348574
  0.1116307026601494  0.2224723325723614  0.3490951854163260
  0.2223200450374634  0.1110031118728619  0.2877766446090060
  0.2227784036722329  0.1118911924999338  0.3893579989245823
  0.0000976811505407 -0.0002001602980176  0.3585940123481898
 -0.0004908395268651  0.3330750649436572  0.0634504615179107
  0.1106084470450699  0.5553053055227027  0.0323045548319783
  0.1106222289483728  0.5552281045943250  0.1335086354094842
  0.2217437801902838  0.4441733991718535  0.0720557452654700
  0.2217427824193824  0.4443383096236657  0.2015405007719806
 -0.0007030710911300  0.3328764309595912  0.1479715495219902
 -0.0007850221134620  0.3329824038800848  0.2736737489553080
  0.1101330615343412  0.5552990494504226  0.2191214965578975
  0.1106253131387580  0.5551383128712751  0.3496390217863091
  0.2204187519588982  0.4432160614997903  0.2870380808640630
  0.2227037982639093  0.4440537072469707  0.3896571361526311
 -0.0001758155974299  0.3329821910769355  0.3585246000562469
 -0.0004525768629157  0.6663826569883290  0.0635310703666433
  0.1105778354135323  0.8886262264341326  0.0323515314461210
  0.1107226147342618  0.8886402817289361  0.1336405803469146
  0.2217498101013489  0.7775664134446778  0.0721866012920772
  0.2219394914105416  0.7775857375183926  0.2022483088790160
 -0.0003686153949423  0.6664161562358452  0.1481000761874977
 -0.0005027704780630  0.6661930835988032  0.2740140928013614
  0.1108264125340217  0.8885539439235380  0.2193666504588509
  0.1111635604310943  0.8888494494524456  0.3501303800917296
  0.2217507114079834  0.7777235060011455  0.2881671614688172
  0.2221804278790354  0.7776307174624395  0.3898977575383855
 -0.0006121539591873  0.6662717711373329  0.3588911914257703
  0.3328184773701756 -0.0002107273534758  0.0634629521404861
  0.4440177338030642  0.2219305449747124  0.0322792452772401
  0.4441092825386023  0.2219759552679036  0.1334904417059236
  0.5551101507307322  0.1108604548620672  0.0722221614851267
  0.5551752200309176  0.1108901391664842  0.2023669523139318
  0.3329623112634713 -0.0002420575529256  0.1480012241629030
  0.3332598428703239 -0.0001352490615148  0.2737567906771808
  0.4442327459685728  0.2217659981362811  0.2190595970471152
  0.4453392109844490  0.2230977301999897  0.3491045140969064
  0.5555946100144384  0.1107761188295198  0.2882503060420483
  0.5555085931806386  0.1112927966169561  0.3899772776197897
  0.3334950343779743  0.0002156142736732  0.3586234649094332
  0.3328617786310059  0.3330668888358107  0.0632682682746515
  0.4440888112328120  0.5554087581077943  0.0321808529581850
  0.4440548301087592  0.5553584214701238  0.1332526517461464
  0.5551281372801852  0.4441651610851913  0.0721256106160934
  0.5551431342007941  0.4440136537087980  0.2022488627297253
  0.3329789715458378  0.3330264044831029  0.1477656660687604
  0.3330332496880774  0.3334270122725502  0.2723514253214641
  0.4441015598507263  0.5552109020326480  0.2185957199833228
  0.4397374827399412  0.5542742733432173  0.3458390567314666
  0.5557169946712268  0.4439342050763642  0.2886078415924234
  0.5550006652310521  0.4378666223955109  0.4021461643491281
  0.3353346548431865  0.3339896973320227  0.3567798011690779
  0.3329084196435161  0.6664725175562930  0.0633060836247050
  0.4440037099742298  0.8888260752740569  0.0322841483491910
  0.4440616687943670  0.8887276677200262  0.1335752587938501
  0.5551299543302773  0.7776047318463626  0.0721370529304864
  0.5552237707159727  0.7775144986978257  0.2019732346067247
  0.3328549575743947  0.6666824847357757  0.1478074802179026
  0.3325811805088048  0.6662434779932813  0.2726971619956159
  0.4443604186297935  0.8888752455341045  0.2192281376760646
  0.4443614842288443  0.8887520433994163  0.3498274358717171
  0.5553383929609690  0.7777961423094364  0.2877631960999971
  0.5549007573904619  0.7763304638288021  0.3895932303270275
  0.3328509360150215  0.6669890297886922  0.3574480943266575
  0.6662135115742408 -0.0002327051323164  0.0635365107864010
  0.7772980210725271  0.2219458961231198  0.0323211336926835
  0.7772872344399488  0.2219008118816189  0.1337191331696981
  0.8883681490586491  0.1108218564490946  0.0722284060994636
  0.8884209942867805  0.1108125276921347  0.2023824609856145
  0.6663194180486139 -0.0001642681261950  0.1480760808223160
  0.6664697251164221 -0.0002779412407765  0.2739938789230921
  0.7772510761510961  0.2218711482424871  0.2194587025909250
  0.7774161724274243  0.2218510950556614  0.3503054962190551
  0.8885562935810813  0.1108103574626365  0.2882941183064841
  0.8891437169333172  0.1108158430263133  0.3900345475177685
  0.6663593787817985 -0.0004714253298165  0.3589663316554823
  0.6661960014728424  0.3330449449867284  0.0634871813720094
  0.7773768398425323  0.5553015715804087  0.0323326146406017
  0.7773745116601449  0.5552269163743595  0.1336349426651894
  0.8883957400103669  0.4441566963998583  0.0722404975192786
  0.8884186000041523  0.4440223305459235  0.2024893470760348
  0.6663848715631975  0.3330168850327279  0.1480599651277856
  0.6656534548315046  0.3327374215796570  0.2736975773802261
  0.7775880933920971  0.5551031238467034  0.2192757431053319
  0.7760848442239938  0.5542031257367540  0.3504862392604809
  0.8881087391833551  0.4440052118996798  0.2884371849650739
  0.8886067473323197  0.4439958681073962  0.3901445546447618
  0.6661577859687711  0.3333666640908595  0.3584475216247039
  0.6662389260145360  0.6664188557249119  0.0634223327819973
  0.7772595318586377  0.8885431864725793  0.0323181340506139
  0.7773295201801849  0.8886324642349405  0.1336397479368782
  0.8884586835379017  0.7774887994716383  0.0722534288420394
  0.8886163495097184  0.7774797269687813  0.2023428200527715
  0.6664777260323160  0.6663571526037473  0.1479360063954385
  0.6662459099364325  0.6656835243003237  0.2725540012273324
  0.7777753368789404  0.8888395823953764  0.2193320453234335
  0.7780717420418610  0.8894343217543633  0.3499950364722834
  0.8893325624009717  0.7777290616388518  0.2883102103073291
  0.8890108602286214  0.7774621790900532  0.3909850241883388
  0.6713589952387703  0.6698742971386946  0.3565707702143179
  0.1031490398708347 -0.0006147505118081  0.1049068225077647
  0.2268241639530678  0.0082698052111166  0.0351652290964820
 -0.0002969095816232  0.1035586975677082  0.1048795946334912
  0.2289367720407648  0.2293653584053037  0.1047296121619461
  0.3243460197970765  0.2184970375773521  0.0350798585315103
  0.1139128229637843  0.1056139658423402  0.0351636269580042
  0.3238598782419625  0.1100885351969145  0.2456615771683598
  0.1101404731420818  0.1194915103472687  0.1753838119274845
  0.2223303050931051  0.2129513560330680  0.2450748963332307
  0.1196416677025581  0.0089166530216218  0.2458406363880969
  0.2126728278971958  0.3237465715166128  0.1750847272207121
  0.0084908210483642  0.2220482061562151  0.1755113366396739
  0.2202906300620415  0.2285001034308892  0.3853494695253293
 -0.0005905446243433  0.2292127571597896  0.3169170503054376
  0.1064261369403271  0.3246976112775697  0.3866099209371449
  0.0091244550797547  0.1147076048606884  0.3867991282625546
  0.1037570634764450  0.1033129770500930  0.3165501434469518
  0.2297193406016262  0.0003690139582799  0.3170566546906206
  0.1030106724713781  0.3326864113653770  0.1047838963444340
  0.2267541412650794  0.3415086644701396  0.0350669115025081
 -0.0003603408074420  0.4369439071867511  0.1048967806502023
  0.2289034999612988  0.5627949530944996  0.1047580256331471
  0.3244149356558537  0.5519781367039280  0.0350590842370520
  0.1139725376301399  0.4390394960264677  0.0351363890444932
  0.3230036342453309  0.4435124951237295  0.2445688730593138
  0.1100253716107478  0.4529768987932674  0.1752440381296615
  0.2217539356213891  0.5464619252843094  0.2450987992391256
  0.1186355739870724  0.3421270957659879  0.2453303229108749
  0.2128325305927891  0.6573490501560156  0.1754126093563058
  0.0086791336667903  0.5556111695384018  0.1756964900503485
  0.2194596412172448  0.5602357235723870  0.3858900726128712
 -0.0008270363140430  0.5623756338846251  0.3172404541804790
  0.1059462359022076  0.6577651473436376  0.3870642845183992
  0.0085251149987005  0.4475187686731074  0.3870219828629392
  0.1032414540650429  0.4365005636947153  0.3165144932420986
  0.2290008356659950  0.3329082447224543  0.3153505294943281
  0.1031194178579693  0.6661301510924995  0.1049261920128000
  0.2268204897232091  0.6749959807022077  0.0351388346430722
 -0.0001561496122849  0.7702655177491138  0.1050000045623103
  0.2289405831235863  0.8960815949756943  0.1049090477014165
  0.3243282838413725  0.8853246014238213  0.0351957938552703
  0.1139983234175043  0.7723977527611825  0.0352258889861802
  0.3236050966961842  0.7771583543166741  0.2455914953398802
  0.1104092033428648  0.7863897151729250  0.1756949273950902
  0.2224342701135187  0.8799110010368042  0.2460550154846920
  0.1193024420924997  0.6756387794477585  0.2460370225313281
  0.2129568430619870  0.9904406600291612  0.1755191555381297
  0.0088016894357794  0.8888763085237853  0.1756706576023598
  0.2191286683408167  0.8941943879104756  0.3872115135548531
 -0.0002347690534001  0.8960167561888831  0.3172313362085444
  0.1063536288674508  0.9919723473708113  0.3870838234220451
  0.0086781492566263  0.7810288821099898  0.3875498654410196
  0.1036833216300433  0.7701296996041918  0.3173490838918099
  0.2291447414004192  0.6667292969670593  0.3165901213350338
  0.4365342473626591 -0.0005640081639921  0.1049150280922868
  0.5603127769619902  0.0083817345205183  0.0352294541286034
  0.3331607508577859  0.1035372443776756  0.1048519933311517
  0.5623588212191424  0.2293069702823611  0.1048881748560967
  0.6576673144422281  0.2185373879950141  0.0352144534390175
  0.4473706324244564  0.1056725786168825  0.0351782863034548
  0.6572510806906715  0.1102440431293946  0.2462200920973567
  0.4437813523534930  0.1196087102044115  0.1755151703963530
  0.5558331726653741  0.2126895013820197  0.2456475460023843
  0.4530322228685507  0.0088281824303605  0.2460516181447676
  0.5465534079209917  0.3238536896531781  0.1753938648748475
  0.3421222328277430  0.2221316624675472  0.1752363519395894
  0.5519777776796027  0.2276484125547612  0.3872509716477049
  0.3337634886264969  0.2297155473579236  0.3157760156678402
  0.4409866098088649  0.3258664851462956  0.3848972356525196
  0.3423983050135395  0.1152231430032362  0.3866340759624425
  0.4373560166474643  0.1033295026445158  0.3169546395486582
  0.5629728857044642 -0.0001153197206891  0.3172728295503581
  0.4365241366266675  0.3327030306527325  0.1047361991612108
  0.5602778811418004  0.3415745360095596  0.0351600561489122
  0.3331790842519090  0.4369689476188152  0.1046703983955781
  0.5624455056660180  0.5628015843498910  0.1047662320613248
  0.6577574593314122  0.5519339377982120  0.0351543791436833
  0.4474475791732932  0.4391335389091331  0.0350750201737004
  0.6574240517919876  0.4440120521285418  0.2459196052602990
  0.4438331404320316  0.4530951605101914  0.1751351069893309
  0.5558251655040624  0.5464970042043762  0.2451959021565311
  0.4531525402390894  0.3423228391878745  0.2451249938172604
  0.5464793191662811  0.6573676337514216  0.1752372474943177
  0.3421629845756363  0.5559167073461757  0.1750275744584606
  0.5524667956448461  0.5564287354440423  0.3831142107178904
  0.3319118684776023  0.5630917275532867  0.3145852396371127
  0.4395895705998719  0.6564502989362333  0.3843317777554455
  0.3423245088187470  0.4487395062983122  0.3838351862218151
  0.4358939786511886  0.4373218425008913  0.3146958222130778
  0.5635912993326478  0.3322378105624866  0.3157842074036242
  0.4366030368456523  0.6663173433993967  0.1047116982048299
  0.5603334969779016  0.6750600487865728  0.0351221454082869
  0.3331946888381145  0.7703756707598801  0.1048641903890101
  0.5623979980911012  0.8961961709104665  0.1049261916912378
  0.6577130266314840  0.8853235048549940  0.0352050813955520
  0.4474151171270654  0.7725996307754723  0.0351156145931832
  0.6571767044999071  0.7770446103264772  0.2457260087661332
  0.4437819603809601  0.7865611253550427  0.1754318966259187
  0.5560090172452573  0.8800766256030608  0.2459113479171205
  0.4531129579724835  0.6758746080467869  0.2452154627203163
  0.5463937979821506  0.9906222879808566  0.1756786861904131
  0.3421889628766146  0.8891220600564917  0.1755719829817580
  0.5516682831724246  0.8927612133837457  0.3871223202797512
  0.3327995133487688  0.8958158642935183  0.3170928400483516
  0.4393250956493557  0.9913277791191160  0.3870848139337228
  0.3417348048486612  0.7804569392861357  0.3867104459914403
  0.4368484552266363  0.7702394618849142  0.3163041150656034
  0.5627623820650183  0.6654081615655886  0.3162199834408894
  0.7698874476804921 -0.0004387713570630  0.1049973398585022
  0.8934479407755180  0.0082023025021403  0.0352307019421724
  0.6665087184302049  0.1036207332211696  0.1049977090302617
  0.8955679071673535  0.2294445549533788  0.1049796198722435
  0.9908289776556062  0.2184816990917843  0.0351752145591089
  0.7806729542456636  0.1057151597531368  0.0352506015992944
  0.9903039651648671  0.1103414168036728  0.2459114208002147
  0.7769513602353847  0.1195930609017856  0.1757604042133493
  0.8886521870951236  0.2129423991036124  0.2461180605981194
  0.7862086715560141  0.0088261896564976  0.2461992289204439
  0.8795776342644761  0.3237650334035425  0.1757452299475832
  0.6755798454721986  0.2222469210385352  0.1757000488040326
  0.8856690031819964  0.2271159548868462  0.3872529782588207
  0.6660228979322107  0.2285372107747967  0.3173962782743504
  0.7720982842416554  0.3243944011010624  0.3872569670532259
  0.6748895334643964  0.1138531352214475  0.3875001317152196
  0.7703907907059263  0.1030007251370174  0.3174632802607067
  0.8962832347364413  0.0002228550967190  0.3172447298542061
  0.7697770875991488  0.3326904953001299  0.1049955909279796
  0.8935032004037152  0.3415814576071767  0.0352107017551360
  0.6666083303208924  0.4369473091924929  0.1048980372722512
  0.8956758840420278  0.5627482173399836  0.1049770408528931
  0.9909742587585189  0.5518895087932536  0.0352292056303186
  0.7807474790028865  0.4390390307403738  0.0352221930472601
  0.9899788866983713  0.4436204528753383  0.2459554864572060
  0.7771859040436881  0.4529357026216574  0.1756905296225107
  0.8888733541809664  0.5464073586684398  0.2462016034223571
  0.7859404172610452  0.3421188370819848  0.2462453821622406
  0.8798465681050365  0.6571789721754064  0.1756906417869298
  0.6756691812120013  0.5555838776051775  0.1754680230184120
  0.8850349521187654  0.5603510735040123  0.3874813822087431
  0.6664476446282274  0.5639503424487126  0.3166423486880549
  0.7723100740005913  0.6581655428168773  0.3868816021613912
  0.6735100629777351  0.4463682178955160  0.3871264493692462
  0.7703011016160011  0.4368752249317213  0.3174418422042304
  0.8958748261999028  0.3332191143717979  0.3172536262369944
  0.7699065028854859  0.6661461269427310  0.1049409398141065
  0.8936057187810391  0.6749324501561982  0.0352422667538917
  0.6666952525954062  0.7704347739216162  0.1048689689945214
  0.8957279479569610  0.8961438321609438  0.1049854949631949
  0.9909154009076517  0.8851811543335829  0.0352325093434054
  0.7807984564608443  0.7723754901212385  0.0351981839881062
  0.9905832182157328  0.7770317763729867  0.2461777050802792
  0.7771230199133947  0.7863458370687401  0.1756348265461292
  0.8893410847712916  0.8799898931922944  0.2460395876393724
  0.7867117934148253  0.6758362202843898  0.2457502698222403
  0.8795787040403781  0.9904632755014284  0.1757019852420001
  0.6755969508128197  0.8890985139732918  0.1755971789038584
  0.8854106654914271  0.8936202400729643  0.3871808886087900
  0.6659235709755893  0.8953076364323114  0.3172104304515086
  0.7725039967853180  0.9909274720405318  0.3873820087751511
  0.6743189338634498  0.7791945660350670  0.3865132363176124
  0.7709816055428098  0.7712712617675186  0.3165471592255395
  0.8960490191278407  0.6667305844133736  0.3173580392819161
  0.5467505370288800  0.5395930058708904  0.4316487265442240
 
  0.00000000E+00  0.00000000E+00  0.00000000E+00
  0.00000000E+00  0.00000000E+00  0.00000000E+00
  0.00000000E+00  0.00000000E+00  0.00000000E+00
  0.00000000E+00  0.00000000E+00  0.00000000E+00
  0.00000000E+00  0.00000000E+00  0.00000000E+00
  0.00000000E+00  0.00000000E+00  0.00000000E+00
  0.00000000E+00  0.00000000E+00  0.00000000E+00
  0.00000000E+00  0.00000000E+00  0.00000000E+00
  0.00000000E+00  0.00000000E+00  0.00000000E+00
  0.00000000E+00  0.00000000E+00  0.00000000E+00
  0.00000000E+00  0.00000000E+00  0.00000000E+00
  0.00000000E+00  0.00000000E+00  0.00000000E+00
  0.00000000E+00  0.00000000E+00  0.00000000E+00
  0.00000000E+00  0.00000000E+00  0.00000000E+00
  0.00000000E+00  0.00000000E+00  0.00000000E+00
  0.00000000E+00  0.00000000E+00  0.00000000E+00
  0.00000000E+00  0.00000000E+00  0.00000000E+00
  0.00000000E+00  0.00000000E+00  0.00000000E+00
  0.00000000E+00  0.00000000E+00  0.00000000E+00
  0.00000000E+00  0.00000000E+00  0.00000000E+00
  0.00000000E+00  0.00000000E+00  0.00000000E+00
  0.00000000E+00  0.00000000E+00  0.00000000E+00
  0.00000000E+00  0.00000000E+00  0.00000000E+00
  0.00000000E+00  0.00000000E+00  0.00000000E+00
  0.00000000E+00  0.00000000E+00  0.00000000E+00
  0.00000000E+00  0.00000000E+00  0.00000000E+00
  0.00000000E+00  0.00000000E+00  0.00000000E+00
  0.00000000E+00  0.00000000E+00  0.00000000E+00
  0.00000000E+00  0.00000000E+00  0.00000000E+00
  0.00000000E+00  0.00000000E+00  0.00000000E+00
  0.00000000E+00  0.00000000E+00  0.00000000E+00
  0.00000000E+00  0.00000000E+00  0.00000000E+00
  0.00000000E+00  0.00000000E+00  0.00000000E+00
  0.00000000E+00  0.00000000E+00  0.00000000E+00
  0.00000000E+00  0.00000000E+00  0.00000000E+00
  0.00000000E+00  0.00000000E+00  0.00000000E+00
  0.00000000E+00  0.00000000E+00  0.00000000E+00
  0.00000000E+00  0.00000000E+00  0.00000000E+00
  0.00000000E+00  0.00000000E+00  0.00000000E+00
  0.00000000E+00  0.00000000E+00  0.00000000E+00
  0.00000000E+00  0.00000000E+00  0.00000000E+00
  0.00000000E+00  0.00000000E+00  0.00000000E+00
  0.00000000E+00  0.00000000E+00  0.00000000E+00
  0.00000000E+00  0.00000000E+00  0.00000000E+00
  0.00000000E+00  0.00000000E+00  0.00000000E+00
  0.00000000E+00  0.00000000E+00  0.00000000E+00
  0.00000000E+00  0.00000000E+00  0.00000000E+00
  0.00000000E+00  0.00000000E+00  0.00000000E+00
  0.00000000E+00  0.00000000E+00  0.00000000E+00
  0.00000000E+00  0.00000000E+00  0.00000000E+00
  0.00000000E+00  0.00000000E+00  0.00000000E+00
  0.00000000E+00  0.00000000E+00  0.00000000E+00
  0.00000000E+00  0.00000000E+00  0.00000000E+00
  0.00000000E+00  0.00000000E+00  0.00000000E+00
  0.00000000E+00  0.00000000E+00  0.00000000E+00
  0.00000000E+00  0.00000000E+00  0.00000000E+00
  0.00000000E+00  0.00000000E+00  0.00000000E+00
  0.00000000E+00  0.00000000E+00  0.00000000E+00
  0.00000000E+00  0.00000000E+00  0.00000000E+00
  0.00000000E+00  0.00000000E+00  0.00000000E+00
  0.00000000E+00  0.00000000E+00  0.00000000E+00
  0.00000000E+00  0.00000000E+00  0.00000000E+00
  0.00000000E+00  0.00000000E+00  0.00000000E+00
  0.00000000E+00  0.00000000E+00  0.00000000E+00
  0.00000000E+00  0.00000000E+00  0.00000000E+00
  0.00000000E+00  0.00000000E+00  0.00000000E+00
  0.00000000E+00  0.00000000E+00  0.00000000E+00
  0.00000000E+00  0.00000000E+00  0.00000000E+00
  0.00000000E+00  0.00000000E+00  0.00000000E+00
  0.00000000E+00  0.00000000E+00  0.00000000E+00
  0.00000000E+00  0.00000000E+00  0.00000000E+00
  0.00000000E+00  0.00000000E+00  0.00000000E+00
  0.00000000E+00  0.00000000E+00  0.00000000E+00
  0.00000000E+00  0.00000000E+00  0.00000000E+00
  0.00000000E+00  0.00000000E+00  0.00000000E+00
  0.00000000E+00  0.00000000E+00  0.00000000E+00
  0.00000000E+00  0.00000000E+00  0.00000000E+00
  0.00000000E+00  0.00000000E+00  0.00000000E+00
  0.00000000E+00  0.00000000E+00  0.00000000E+00
  0.00000000E+00  0.00000000E+00  0.00000000E+00
  0.00000000E+00  0.00000000E+00  0.00000000E+00
  0.00000000E+00  0.00000000E+00  0.00000000E+00
  0.00000000E+00  0.00000000E+00  0.00000000E+00
  0.00000000E+00  0.00000000E+00  0.00000000E+00
  0.00000000E+00  0.00000000E+00  0.00000000E+00
  0.00000000E+00  0.00000000E+00  0.00000000E+00
  0.00000000E+00  0.00000000E+00  0.00000000E+00
  0.00000000E+00  0.00000000E+00  0.00000000E+00
  0.00000000E+00  0.00000000E+00  0.00000000E+00
  0.00000000E+00  0.00000000E+00  0.00000000E+00
  0.00000000E+00  0.00000000E+00  0.00000000E+00
  0.00000000E+00  0.00000000E+00  0.00000000E+00
  0.00000000E+00  0.00000000E+00  0.00000000E+00
  0.00000000E+00  0.00000000E+00  0.00000000E+00
  0.00000000E+00  0.00000000E+00  0.00000000E+00
  0.00000000E+00  0.00000000E+00  0.00000000E+00
  0.00000000E+00  0.00000000E+00  0.00000000E+00
  0.00000000E+00  0.00000000E+00  0.00000000E+00
  0.00000000E+00  0.00000000E+00  0.00000000E+00
  0.00000000E+00  0.00000000E+00  0.00000000E+00
  0.00000000E+00  0.00000000E+00  0.00000000E+00
  0.00000000E+00  0.00000000E+00  0.00000000E+00
  0.00000000E+00  0.00000000E+00  0.00000000E+00
  0.00000000E+00  0.00000000E+00  0.00000000E+00
  0.00000000E+00  0.00000000E+00  0.00000000E+00
  0.00000000E+00  0.00000000E+00  0.00000000E+00
  0.00000000E+00  0.00000000E+00  0.00000000E+00
  0.00000000E+00  0.00000000E+00  0.00000000E+00
  0.00000000E+00  0.00000000E+00  0.00000000E+00
  0.00000000E+00  0.00000000E+00  0.00000000E+00
  0.00000000E+00  0.00000000E+00  0.00000000E+00
  0.00000000E+00  0.00000000E+00  0.00000000E+00
  0.00000000E+00  0.00000000E+00  0.00000000E+00
  0.00000000E+00  0.00000000E+00  0.00000000E+00
  0.00000000E+00  0.00000000E+00  0.00000000E+00
  0.00000000E+00  0.00000000E+00  0.00000000E+00
  0.00000000E+00  0.00000000E+00  0.00000000E+00
  0.00000000E+00  0.00000000E+00  0.00000000E+00
  0.00000000E+00  0.00000000E+00  0.00000000E+00
  0.00000000E+00  0.00000000E+00  0.00000000E+00
  0.00000000E+00  0.00000000E+00  0.00000000E+00
  0.00000000E+00  0.00000000E+00  0.00000000E+00
  0.00000000E+00  0.00000000E+00  0.00000000E+00
  0.00000000E+00  0.00000000E+00  0.00000000E+00
  0.00000000E+00  0.00000000E+00  0.00000000E+00
  0.00000000E+00  0.00000000E+00  0.00000000E+00
  0.00000000E+00  0.00000000E+00  0.00000000E+00
  0.00000000E+00  0.00000000E+00  0.00000000E+00
  0.00000000E+00  0.00000000E+00  0.00000000E+00
  0.00000000E+00  0.00000000E+00  0.00000000E+00
  0.00000000E+00  0.00000000E+00  0.00000000E+00
  0.00000000E+00  0.00000000E+00  0.00000000E+00
  0.00000000E+00  0.00000000E+00  0.00000000E+00
  0.00000000E+00  0.00000000E+00  0.00000000E+00
  0.00000000E+00  0.00000000E+00  0.00000000E+00
  0.00000000E+00  0.00000000E+00  0.00000000E+00
  0.00000000E+00  0.00000000E+00  0.00000000E+00
  0.00000000E+00  0.00000000E+00  0.00000000E+00
  0.00000000E+00  0.00000000E+00  0.00000000E+00
  0.00000000E+00  0.00000000E+00  0.00000000E+00
  0.00000000E+00  0.00000000E+00  0.00000000E+00
  0.00000000E+00  0.00000000E+00  0.00000000E+00
  0.00000000E+00  0.00000000E+00  0.00000000E+00
  0.00000000E+00  0.00000000E+00  0.00000000E+00
  0.00000000E+00  0.00000000E+00  0.00000000E+00
  0.00000000E+00  0.00000000E+00  0.00000000E+00
  0.00000000E+00  0.00000000E+00  0.00000000E+00
  0.00000000E+00  0.00000000E+00  0.00000000E+00
  0.00000000E+00  0.00000000E+00  0.00000000E+00
  0.00000000E+00  0.00000000E+00  0.00000000E+00
  0.00000000E+00  0.00000000E+00  0.00000000E+00
  0.00000000E+00  0.00000000E+00  0.00000000E+00
  0.00000000E+00  0.00000000E+00  0.00000000E+00
  0.00000000E+00  0.00000000E+00  0.00000000E+00
  0.00000000E+00  0.00000000E+00  0.00000000E+00
  0.00000000E+00  0.00000000E+00  0.00000000E+00
  0.00000000E+00  0.00000000E+00  0.00000000E+00
  0.00000000E+00  0.00000000E+00  0.00000000E+00
  0.00000000E+00  0.00000000E+00  0.00000000E+00
  0.00000000E+00  0.00000000E+00  0.00000000E+00
  0.00000000E+00  0.00000000E+00  0.00000000E+00
  0.00000000E+00  0.00000000E+00  0.00000000E+00
  0.00000000E+00  0.00000000E+00  0.00000000E+00
  0.00000000E+00  0.00000000E+00  0.00000000E+00
  0.00000000E+00  0.00000000E+00  0.00000000E+00
  0.00000000E+00  0.00000000E+00  0.00000000E+00
  0.00000000E+00  0.00000000E+00  0.00000000E+00
  0.00000000E+00  0.00000000E+00  0.00000000E+00
  0.00000000E+00  0.00000000E+00  0.00000000E+00
  0.00000000E+00  0.00000000E+00  0.00000000E+00
  0.00000000E+00  0.00000000E+00  0.00000000E+00
  0.00000000E+00  0.00000000E+00  0.00000000E+00
  0.00000000E+00  0.00000000E+00  0.00000000E+00
  0.00000000E+00  0.00000000E+00  0.00000000E+00
  0.00000000E+00  0.00000000E+00  0.00000000E+00
  0.00000000E+00  0.00000000E+00  0.00000000E+00
  0.00000000E+00  0.00000000E+00  0.00000000E+00
  0.00000000E+00  0.00000000E+00  0.00000000E+00
  0.00000000E+00  0.00000000E+00  0.00000000E+00
  0.00000000E+00  0.00000000E+00  0.00000000E+00
  0.00000000E+00  0.00000000E+00  0.00000000E+00
  0.00000000E+00  0.00000000E+00  0.00000000E+00
  0.00000000E+00  0.00000000E+00  0.00000000E+00
  0.00000000E+00  0.00000000E+00  0.00000000E+00
  0.00000000E+00  0.00000000E+00  0.00000000E+00
  0.00000000E+00  0.00000000E+00  0.00000000E+00
  0.00000000E+00  0.00000000E+00  0.00000000E+00
  0.00000000E+00  0.00000000E+00  0.00000000E+00
  0.00000000E+00  0.00000000E+00  0.00000000E+00
  0.00000000E+00  0.00000000E+00  0.00000000E+00
  0.00000000E+00  0.00000000E+00  0.00000000E+00
  0.00000000E+00  0.00000000E+00  0.00000000E+00
  0.00000000E+00  0.00000000E+00  0.00000000E+00
  0.00000000E+00  0.00000000E+00  0.00000000E+00
  0.00000000E+00  0.00000000E+00  0.00000000E+00
  0.00000000E+00  0.00000000E+00  0.00000000E+00
  0.00000000E+00  0.00000000E+00  0.00000000E+00
  0.00000000E+00  0.00000000E+00  0.00000000E+00
  0.00000000E+00  0.00000000E+00  0.00000000E+00
  0.00000000E+00  0.00000000E+00  0.00000000E+00
  0.00000000E+00  0.00000000E+00  0.00000000E+00
  0.00000000E+00  0.00000000E+00  0.00000000E+00
  0.00000000E+00  0.00000000E+00  0.00000000E+00
  0.00000000E+00  0.00000000E+00  0.00000000E+00
  0.00000000E+00  0.00000000E+00  0.00000000E+00
  0.00000000E+00  0.00000000E+00  0.00000000E+00
  0.00000000E+00  0.00000000E+00  0.00000000E+00
  0.00000000E+00  0.00000000E+00  0.00000000E+00
  0.00000000E+00  0.00000000E+00  0.00000000E+00
  0.00000000E+00  0.00000000E+00  0.00000000E+00
  0.00000000E+00  0.00000000E+00  0.00000000E+00
  0.00000000E+00  0.00000000E+00  0.00000000E+00
  0.00000000E+00  0.00000000E+00  0.00000000E+00
  0.00000000E+00  0.00000000E+00  0.00000000E+00
  0.00000000E+00  0.00000000E+00  0.00000000E+00
  0.00000000E+00  0.00000000E+00  0.00000000E+00
  0.00000000E+00  0.00000000E+00  0.00000000E+00
  0.00000000E+00  0.00000000E+00  0.00000000E+00
  0.00000000E+00  0.00000000E+00  0.00000000E+00
  0.00000000E+00  0.00000000E+00  0.00000000E+00
  0.00000000E+00  0.00000000E+00  0.00000000E+00
  0.00000000E+00  0.00000000E+00  0.00000000E+00
  0.00000000E+00  0.00000000E+00  0.00000000E+00
  0.00000000E+00  0.00000000E+00  0.00000000E+00
  0.00000000E+00  0.00000000E+00  0.00000000E+00
  0.00000000E+00  0.00000000E+00  0.00000000E+00
  0.00000000E+00  0.00000000E+00  0.00000000E+00
  0.00000000E+00  0.00000000E+00  0.00000000E+00
  0.00000000E+00  0.00000000E+00  0.00000000E+00
  0.00000000E+00  0.00000000E+00  0.00000000E+00
  0.00000000E+00  0.00000000E+00  0.00000000E+00
  0.00000000E+00  0.00000000E+00  0.00000000E+00
  0.00000000E+00  0.00000000E+00  0.00000000E+00
  0.00000000E+00  0.00000000E+00  0.00000000E+00
  0.00000000E+00  0.00000000E+00  0.00000000E+00
  0.00000000E+00  0.00000000E+00  0.00000000E+00
  0.00000000E+00  0.00000000E+00  0.00000000E+00
  0.00000000E+00  0.00000000E+00  0.00000000E+00
  0.00000000E+00  0.00000000E+00  0.00000000E+00
  0.00000000E+00  0.00000000E+00  0.00000000E+00
  0.00000000E+00  0.00000000E+00  0.00000000E+00
  0.00000000E+00  0.00000000E+00  0.00000000E+00
  0.00000000E+00  0.00000000E+00  0.00000000E+00
  0.00000000E+00  0.00000000E+00  0.00000000E+00
  0.00000000E+00  0.00000000E+00  0.00000000E+00
  0.00000000E+00  0.00000000E+00  0.00000000E+00
  0.00000000E+00  0.00000000E+00  0.00000000E+00
  0.00000000E+00  0.00000000E+00  0.00000000E+00
  0.00000000E+00  0.00000000E+00  0.00000000E+00
  0.00000000E+00  0.00000000E+00  0.00000000E+00
  0.00000000E+00  0.00000000E+00  0.00000000E+00
  0.00000000E+00  0.00000000E+00  0.00000000E+00
  0.00000000E+00  0.00000000E+00  0.00000000E+00
  0.00000000E+00  0.00000000E+00  0.00000000E+00
  0.00000000E+00  0.00000000E+00  0.00000000E+00
  0.00000000E+00  0.00000000E+00  0.00000000E+00
  0.00000000E+00  0.00000000E+00  0.00000000E+00
  0.00000000E+00  0.00000000E+00  0.00000000E+00
  0.00000000E+00  0.00000000E+00  0.00000000E+00
  0.00000000E+00  0.00000000E+00  0.00000000E+00
  0.00000000E+00  0.00000000E+00  0.00000000E+00
  0.00000000E+00  0.00000000E+00  0.00000000E+00
  0.00000000E+00  0.00000000E+00  0.00000000E+00
  0.00000000E+00  0.00000000E+00  0.00000000E+00
  0.00000000E+00  0.00000000E+00  0.00000000E+00
  0.00000000E+00  0.00000000E+00  0.00000000E+00
  0.00000000E+00  0.00000000E+00  0.00000000E+00
  0.00000000E+00  0.00000000E+00  0.00000000E+00