New structure                           
    1.000000000000000     
     0.0000000000000000  -17.1805734624895479    0.0000000000000000
     0.0000000000000000   -8.5902867312447739  -14.8788130701007191
    30.0000000000000000    0.0000000000000000    0.0000000000000000
   Al   O 
   252     1
Direct
  0.4444369500616333  0.4444594332100621  0.0826984410596590
  0.4444411720147315  0.7778343328831325  0.0823100297516581
  0.4444190825672032  0.1110148599317949  0.0823932998749684
  0.7779411135683498  0.4445142879026859  0.0826499145381210
  0.7775382860049317  0.7782567613234719  0.0825685154917939
  0.7778993908343376  0.1110148599317949  0.0823932998749684
  0.1108779318622994  0.4445142879026859  0.0826499145381210
  0.1110578284354714  0.7778343328831325  0.0823100297516581
  0.1110113006704592  0.1113107319924245  0.0825697541698028
  0.5557328963942409  0.5555274729890022  0.1597532088008558
  0.5560210156866513  0.8886562511151509  0.1598403841851979
  0.5559450189566614  0.2214432954200132  0.1596175720662464
  0.8888879105528785  0.5555575122275717  0.1598163368981888
  0.8886560665315265  0.8886562511151509  0.1598403841851979
  0.8890695467529727  0.2222605177505430  0.1600072678817458
  0.2220729639500922  0.5555274729890022  0.1597532088008558
  0.2220417805139726  0.8892497723053833  0.1598607833843710
  0.2220032688298129  0.2222605177505430  0.1600072678817458
  0.6667741109861592  0.6669076102692201  0.2353604563601071
  0.6666235788226113  0.0000861756881057  0.2353912332144953
  0.6664656730892909  0.3333702105029018  0.2352024667304423
 -0.0003483879220511  0.6669076102692201  0.2353604563601071
 -0.0000853706720237 -0.0001941949312552  0.2353806085961367
 -0.0000220458861187  0.3333774251055730  0.2356907739440668
  0.3332522696050240  0.6668287941232878  0.2350758679700454
  0.3336128989366146 -0.0001941949312552  0.2353806085961367
  0.3334974497411430  0.3333702105029018  0.2352024667304423
  0.7777680367162007  0.7777972599009347  0.3117279895499647
  0.7778345443449530  0.1110164524540679  0.3117884127748929
  0.7778876016215874  0.4446179023534651  0.3116376211280866
  0.1110412262550286  0.7778873204678587  0.3118115362399311
  0.1110689440943946  0.1111954451445536  0.3116385275480920
  0.1108278293582832  0.4446179023534651  0.3116376211280866
  0.4444047866104487  0.7778873204678587  0.3118115362399311
  0.4444823365343145  0.1110164524540679  0.3117884127748929
  0.4454199840278009  0.4424933652777269  0.3105292972581830
  0.8890462582326729  0.8886652987096690  0.3882826781111574
  0.8893156111715388  0.2220712847365382  0.3880993064118494
  0.8889106745160508  0.5555119843012275  0.3881869040972948
  0.2214115013050761  0.8905103307231765  0.3883038965373318
  0.2219464374252512  0.2220712847365382  0.3880993064118494
  0.2216290205563301  0.5545327147018512  0.3882778669262968
  0.5556217763909864  0.8886652987096690  0.3882826781111574
  0.5553595422710971  0.2226142487911423  0.3884629415490620
  0.5571715980751548  0.5545327147018512  0.3882778669262968
 -0.0002931568461806  0.0008119480952199  0.4639316696374317
  0.0001712584440361  0.3329908164452635  0.4634143106978002
  0.0000852009235414  0.6664472266248122  0.4638530534604486
  0.3328145420842962  0.0008119480952199  0.4639316696374317
  0.3325604677876086  0.3315854821205476  0.4644861709358015
  0.3290088603762389  0.6753156125808579  0.4662546238710959
  0.6666856671223370 -0.0000380009113456  0.4636914643678934
  0.6691873834251798  0.3315854821205476  0.4644861709358015
  0.6668009057849748  0.6664472266248122  0.4638530534604486
  0.1106599807993636  0.1120133717346157  0.5409004084090837
  0.1103063429151213  0.4436191445996454  0.5418723064946448
  0.1100357392659818  0.7790115688319946  0.5420223298065725
  0.4446564005413995  0.1109430261646326  0.5411501563813045
  0.4450247639927609  0.4432838053478068  0.5435792919770044
  0.4442860252353593  0.7790115688319946  0.5420223298065725
  0.7777339066273039  0.1109430261646326  0.5411501563813045
  0.7794078458185690  0.4436191445996454  0.5418723064946447
  0.7777190258078436  0.7778952817176475  0.5410349700370327
  0.2778476212360216  0.2775445985289637  0.0826499145381210
  0.2777927665433979  0.6111036167283044  0.0826984410596590
  0.2778476212360216  0.9446077802350141  0.0826499145381210
  0.6111676662164682  0.2777244951021356  0.0823100297516581
  0.6111676662164682  0.6111078386814027  0.0823100297516581
  0.6115900946568076  0.9442049526715960  0.0825685154917939
  0.9446440653257531  0.2776779673371235  0.0825697541698028
  0.9443481932651235  0.6110857492338747  0.0823932998749684
  0.9443481932651235  0.9445660575010019  0.0823932998749684
  0.3888608063223312  0.3887396306167566  0.1597532088008558
  0.3888608063223312  0.7223995630609052  0.1597532088008558
  0.3888908455608999  0.0555545772195500  0.1598163368981888
  0.7225831056387190  0.3887084471806370  0.1598607833843710
  0.7219895844484866  0.7226876823533156  0.1598403841851979
  0.7219895844484866  0.0553227331981978  0.1598403841851979
  0.0555938510838787  0.3886699354964772  0.1600072678817458
  0.0547766287533489  0.7226116856233257  0.1596175720662464
  0.0555938510838787  0.0557362134196441  0.1600072678817458
  0.5001621274566235  0.4999189362716883  0.2350758679700454
  0.5002409436025560  0.8334407776528306  0.2353604563601071
  0.5002409436025560  0.1663182787446132  0.2353604563601071
  0.8331391384020804  0.5002795656032790  0.2353806085961367
  0.8334195090214414  0.8332902454892827  0.2353912332144953
  0.8331391384020804  0.1665812959946406  0.2353806085961367
  0.1667035438362305  0.5001641164078073  0.2352024667304423
  0.1667035438362305  0.8331323397559623  0.2352024667304423
  0.1667107584389017  0.1666446207805456  0.2356907739440668
  0.6112206538011944  0.6110714532771200  0.3118115362399311
  0.6111305932342704  0.9444347033828649  0.3117279895499647
  0.6112206538011944  0.2777078929216929  0.3118115362399311
  0.9443497857873964  0.6111490032009865  0.3117884127748929
  0.9443497857873964  0.9445012110116173  0.3117884127748929
  0.9445287784778822  0.2777356107610589  0.3116385275480920
  0.2758266986110626  0.6120866506944721  0.3105292972581830
  0.2779512356868008  0.9445542682882517  0.3116376211280866
  0.2779512356868008  0.2774944960249474  0.3116376211280866
  0.7219986320430047  0.7222884430576507  0.3882826781111574
  0.7219986320430047  0.0557129248993444  0.3882826781111574
  0.7238436640565122  0.3880781679717403  0.3883038965373318
  0.0559475821244779  0.7220262089377614  0.3884629415490620
  0.0554046180698739  0.0559822778382105  0.3880993064118494
  0.0554046180698739  0.3886131040919156  0.3880993064118494
  0.3878660480351794  0.7238382647418191  0.3882778669262968
  0.3888453176345559  0.0555773411827220  0.3881869040972948
  0.3878660480351794  0.3882956872229945  0.3882778669262968
  0.8332953324219902  0.8333523337890084  0.4636914643678934
  0.8341452814285556  0.1663735098204837  0.4639316696374317
  0.8341452814285556  0.4994812087509605  0.4639316696374317
  0.1649188154538761  0.8358540500918511  0.4644861709358015
  0.1663241497785920  0.1668379251107004  0.4634143106978002
  0.1649188154538761  0.4992271344542727  0.4644861709358015
  0.4997805599581480  0.8334675724516462  0.4638530534604486
  0.4997805599581480  0.1667518675902057  0.4638530534604486
  0.5086489459141936  0.4956755270429032  0.4662546238710959
  0.9442763594979611  0.9444005732939682  0.5411501563813045
  0.9453467050679444  0.2773266474660278  0.5409004084090837
  0.9442763594979611  0.6113230672080708  0.5411501563813045
  0.2769524779329811  0.9460745124852333  0.5418723064946447
  0.2769524779329811  0.2769730095817857  0.5418723064946447
  0.2766171386811425  0.6116914306594323  0.5435792919770044
  0.6112286150509832  0.9443856924745079  0.5410349700370327
  0.6123449021653303  0.2767024059326462  0.5420223298065725
  0.6123449021653303  0.6109526919020305  0.5420223298065725
  0.2778663088857947  0.4445329755524590  0.0825865604336621
  0.2778663088857947  0.7776007155617463  0.0825865604336621
  0.2774238196156520  0.1112880901921777  0.0824910026185618
  0.6109340488950820  0.4445329755524590  0.0825865604336621
  0.6113733576063071  0.7780400242729714  0.0823642890788893
  0.6113733576063071  0.1105866181207290  0.0823642890788893
  0.9446214235255063  0.4440904862823163  0.0824910026185618
  0.9439199514540570  0.7780400242729714  0.0823642890788893
  0.9446214235255063  0.1112880901921777  0.0824910026185618
  0.3888888888888857  0.5555555555555571  0.1605429502444446
  0.3891957213009000  0.8886181817649563  0.1598149720528945
  0.3891957213009000  0.2221860969341367  0.1598149720528945
  0.7219515150982920  0.5558623879675708  0.1598149720528945
  0.7222222222222214  0.8888888888888857  0.1601219683151495
  0.7219515150982920  0.2221860969341367  0.1598149720528945
  0.0555194302674725  0.5558623879675708  0.1598149720528945
  0.0555194302674725  0.8886181817649563  0.1598149720528945
  0.0555555555555571  0.2222222222222214  0.1601876007642226
  0.5004409349810108  0.6671076016476751  0.2349633483824611
  0.5002993924536426 -0.0001496962268214  0.2353783369759638
  0.5004409349810108  0.3324514633713141  0.2349633483824611
  0.8331836371065144  0.6669660591203069  0.2353783369759638
  0.8331836371065144 -0.0001496962268214  0.2353783369759638
  0.8333670656696278  0.3333164671651896  0.2353043820733742
  0.1657847967046427  0.6671076016476751  0.2349633483824611
  0.1666498004985182  0.0000337323362922  0.2353043820733742
  0.1666498004985182  0.3333164671651896  0.2353043820733742
  0.6110997968154938  0.7777664634821581  0.3120320329597016
  0.6110997968154938  0.1111337397023553  0.3120320329597016
  0.6118948167979844  0.4440525916010078  0.3115698399128607
  0.9444670730356839  0.7777664634821581  0.3120320329597016
  0.9443609583954988  0.1110276250621701  0.3115757954198137
  0.9443609583954988  0.4446114165423309  0.3115757954198137
  0.2773859249343435  0.7785614834646487  0.3115698399128607
  0.2779447498756666  0.1110276250621701  0.3115757954198137
  0.2773859249343435  0.4440525916010078  0.3115698399128607
  0.7222222222222214  0.8888888888888857  0.3882899050953273
  0.7225519968745069  0.2221795582563735  0.3883258145958525
  0.7225519968745069  0.5552684448691197  0.3883258145958525
  0.0555128915897092  0.8892186635411712  0.3883258145958525
  0.0555555555555571  0.2222222222222214  0.3878361258291004
  0.0555128915897092  0.5552684448691197  0.3883258145958525
  0.3886017782024483  0.8892186635411712  0.3883258145958525
  0.3886017782024483  0.2221795582563735  0.3883258145958525
  0.3888888888888857  0.5555555555555571  0.3817732668595644
  0.8332118717604500 -0.0001214615728859  0.4636343960472299
  0.8347440985154789  0.3326279507422641  0.4639876982862317
  0.8332118717604500  0.6669095898124361  0.4636343960472299
  0.1659612840755927  0.0014107651821432  0.4639876982862315
  0.1659612840755927  0.3326279507422641  0.4639876982862317
  0.1660328366752489  0.6669835816623718  0.4649165836095107
  0.5002429231457717 -0.0001214615728859  0.4636343960472299
  0.5003169149957075  0.3326995033419201  0.4649165836095107
  0.5003169149957075  0.6669835816623718  0.4649165836095107
  0.9444583471638522  0.1111250138305238  0.5409775296653411
  0.9444583471638522  0.4444166390056237  0.5409775296653411
  0.9442075404740584  0.7778962297629709  0.5413461245385760
  0.2777499723389594  0.1111250138305238  0.5409775296653411
  0.2769786063055080  0.4436452729721723  0.5437761821344311
  0.2769786063055080  0.7793761207223197  0.5437761821344311
  0.6112295630963066  0.1108742071407299  0.5413461245385760
  0.6127094540556554  0.4436452729721723  0.5437761821344311
  0.6112295630963066  0.7778962297629709  0.5413461245385760
  0.4444411720147315  0.2777244951021356  0.0823100297516581
  0.4444369500616333  0.6111036167283044  0.0826984410596590
  0.4444190825672032  0.9445660575010019  0.0823932998749684
  0.7779411135683498  0.2775445985289637  0.0826499145381210
  0.7778993908343376  0.6110857492338747  0.0823932998749684
  0.7775382860049317  0.9442049526715960  0.0825685154917939
  0.1110113006704592  0.2776779673371235  0.0825697541698028
  0.1110578284354714  0.6111078386814027  0.0823100297516581
  0.1108779318622994  0.9446077802350141  0.0826499145381210
  0.5557328963942409  0.3887396306167566  0.1597532088008558
  0.5559450189566614  0.7226116856233257  0.1596175720662464
  0.5560210156866513  0.0553227331981978  0.1598403841851979
  0.8890695467529727  0.3886699354964772  0.1600072678817458
  0.8886560665315265  0.7226876823533156  0.1598403841851979
  0.8888879105528785  0.0555545772195500  0.1598163368981888
  0.2220417805139726  0.3887084471806370  0.1598607833843710
  0.2220729639500922  0.7223995630609052  0.1597532088008558
  0.2220032688298129  0.0557362134196441  0.1600072678817458
  0.6664656730892909  0.5001641164078073  0.2352024667304423
  0.6666235788226113  0.8332902454892827  0.2353912332144953
  0.6667741109861592  0.1663182787446132  0.2353604563601071
 -0.0000853706720237  0.5002795656032790  0.2353806085961367
 -0.0003483879220511  0.8334407776528306  0.2353604563601071
 -0.0000220458861187  0.1666446207805456  0.2356907739440668
  0.3332522696050240  0.4999189362716883  0.2350758679700454
  0.3334974497411430  0.8331323397559623  0.2352024667304423
  0.3336128989366146  0.1665812959946406  0.2353806085961367
  0.7778345443449530  0.6111490032009865  0.3117884127748929
  0.7777680367162007  0.9444347033828649  0.3117279895499647
  0.7778876016215874  0.2774944960249474  0.3116376211280866
  0.1110412262550286  0.6110714532771200  0.3118115362399311
  0.1108278293582832  0.9445542682882517  0.3116376211280866
  0.1110689440943946  0.2777356107610589  0.3116385275480920
  0.4454199840278009  0.6120866506944721  0.3105292972581830
  0.4444823365343145  0.9445012110116173  0.3117884127748929
  0.4444047866104487  0.2777078929216929  0.3118115362399311
  0.8890462582326729  0.7222884430576507  0.3882826781111574
  0.8889106745160508  0.0555773411827220  0.3881869040972948
  0.8893156111715388  0.3886131040919156  0.3880993064118494
  0.2216290205563300  0.7238382647418191  0.3882778669262968
  0.2219464374252512  0.0559822778382105  0.3880993064118494
  0.2214115013050761  0.3880781679717403  0.3883038965373318
  0.5553595422710971  0.7220262089377614  0.3884629415490620
  0.5556217763909864  0.0557129248993444  0.3882826781111574
  0.5571715980751548  0.3882956872229945  0.3882778669262968
  0.0000852009235414  0.8334675724516462  0.4638530534604486
  0.0001712584440361  0.1668379251107004  0.4634143106978002
 -0.0002931568461806  0.4994812087509605  0.4639316696374317
  0.3325604677876086  0.8358540500918511  0.4644861709358015
  0.3328145420842962  0.1663735098204837  0.4639316696374317
  0.3290088603762390  0.4956755270429032  0.4662546238710959
  0.6666856671223370  0.8333523337890084  0.4636914643678934
  0.6668009057849748  0.1667518675902057  0.4638530534604486
  0.6691873834251798  0.4992271344542727  0.4644861709358015
  0.1103063429151213  0.9460745124852333  0.5418723064946447
  0.1106599807993636  0.2773266474660278  0.5409004084090837
  0.1100357392659818  0.6109526919020305  0.5420223298065725
  0.4446564005413995  0.9444005732939682  0.5411501563813045
  0.4442860252353593  0.2767024059326462  0.5420223298065725
  0.4450247639927609  0.6116914306594323  0.5435792919770044
  0.7777190258078436  0.9443856924745079  0.5410349700370327
  0.7794078458185690  0.2769730095817857  0.5418723064946447
  0.7777339066273039  0.6113230672080708  0.5411501563813045
  0.3888888888888857  0.5555555555555571  0.4441101209303423
 
  0.00000000E+00  0.00000000E+00  0.00000000E+00
  0.00000000E+00  0.00000000E+00  0.00000000E+00
  0.00000000E+00  0.00000000E+00  0.00000000E+00
  0.00000000E+00  0.00000000E+00  0.00000000E+00
  0.00000000E+00  0.00000000E+00  0.00000000E+00
  0.00000000E+00  0.00000000E+00  0.00000000E+00
  0.00000000E+00  0.00000000E+00  0.00000000E+00
  0.00000000E+00  0.00000000E+00  0.00000000E+00
  0.00000000E+00  0.00000000E+00  0.00000000E+00
  0.00000000E+00  0.00000000E+00  0.00000000E+00
  0.00000000E+00  0.00000000E+00  0.00000000E+00
  0.00000000E+00  0.00000000E+00  0.00000000E+00
  0.00000000E+00  0.00000000E+00  0.00000000E+00
  0.00000000E+00  0.00000000E+00  0.00000000E+00
  0.00000000E+00  0.00000000E+00  0.00000000E+00
  0.00000000E+00  0.00000000E+00  0.00000000E+00
  0.00000000E+00  0.00000000E+00  0.00000000E+00
  0.00000000E+00  0.00000000E+00  0.00000000E+00
  0.00000000E+00  0.00000000E+00  0.00000000E+00
  0.00000000E+00  0.00000000E+00  0.00000000E+00
  0.00000000E+00  0.00000000E+00  0.00000000E+00
  0.00000000E+00  0.00000000E+00  0.00000000E+00
  0.00000000E+00  0.00000000E+00  0.00000000E+00
  0.00000000E+00  0.00000000E+00  0.00000000E+00
  0.00000000E+00  0.00000000E+00  0.00000000E+00
  0.00000000E+00  0.00000000E+00  0.00000000E+00
  0.00000000E+00  0.00000000E+00  0.00000000E+00
  0.00000000E+00  0.00000000E+00  0.00000000E+00
  0.00000000E+00  0.00000000E+00  0.00000000E+00
  0.00000000E+00  0.00000000E+00  0.00000000E+00
  0.00000000E+00  0.00000000E+00  0.00000000E+00
  0.00000000E+00  0.00000000E+00  0.00000000E+00
  0.00000000E+00  0.00000000E+00  0.00000000E+00
  0.00000000E+00  0.00000000E+00  0.00000000E+00
  0.00000000E+00  0.00000000E+00  0.00000000E+00
  0.00000000E+00  0.00000000E+00  0.00000000E+00
  0.00000000E+00  0.00000000E+00  0.00000000E+00
  0.00000000E+00  0.00000000E+00  0.00000000E+00
  0.00000000E+00  0.00000000E+00  0.00000000E+00
  0.00000000E+00  0.00000000E+00  0.00000000E+00
  0.00000000E+00  0.00000000E+00  0.00000000E+00
  0.00000000E+00  0.00000000E+00  0.00000000E+00
  0.00000000E+00  0.00000000E+00  0.00000000E+00
  0.00000000E+00  0.00000000E+00  0.00000000E+00
  0.00000000E+00  0.00000000E+00  0.00000000E+00
  0.00000000E+00  0.00000000E+00  0.00000000E+00
  0.00000000E+00  0.00000000E+00  0.00000000E+00
  0.00000000E+00  0.00000000E+00  0.00000000E+00
  0.00000000E+00  0.00000000E+00  0.00000000E+00
  0.00000000E+00  0.00000000E+00  0.00000000E+00
  0.00000000E+00  0.00000000E+00  0.00000000E+00
  0.00000000E+00  0.00000000E+00  0.00000000E+00
  0.00000000E+00  0.00000000E+00  0.00000000E+00
  0.00000000E+00  0.00000000E+00  0.00000000E+00
  0.00000000E+00  0.00000000E+00  0.00000000E+00
  0.00000000E+00  0.00000000E+00  0.00000000E+00
  0.00000000E+00  0.00000000E+00  0.00000000E+00
  0.00000000E+00  0.00000000E+00  0.00000000E+00
  0.00000000E+00  0.00000000E+00  0.00000000E+00
  0.00000000E+00  0.00000000E+00  0.00000000E+00
  0.00000000E+00  0.00000000E+00  0.00000000E+00
  0.00000000E+00  0.00000000E+00  0.00000000E+00
  0.00000000E+00  0.00000000E+00  0.00000000E+00
  0.00000000E+00  0.00000000E+00  0.00000000E+00
  0.00000000E+00  0.00000000E+00  0.00000000E+00
  0.00000000E+00  0.00000000E+00  0.00000000E+00
  0.00000000E+00  0.00000000E+00  0.00000000E+00
  0.00000000E+00  0.00000000E+00  0.00000000E+00
  0.00000000E+00  0.00000000E+00  0.00000000E+00
  0.00000000E+00  0.00000000E+00  0.00000000E+00
  0.00000000E+00  0.00000000E+00  0.00000000E+00
  0.00000000E+00  0.00000000E+00  0.00000000E+00
  0.00000000E+00  0.00000000E+00  0.00000000E+00
  0.00000000E+00  0.00000000E+00  0.00000000E+00
  0.00000000E+00  0.00000000E+00  0.00000000E+00
  0.00000000E+00  0.00000000E+00  0.00000000E+00
  0.00000000E+00  0.00000000E+00  0.00000000E+00
  0.00000000E+00  0.00000000E+00  0.00000000E+00
  0.00000000E+00  0.00000000E+00  0.00000000E+00
  0.00000000E+00  0.00000000E+00  0.00000000E+00
  0.00000000E+00  0.00000000E+00  0.00000000E+00
  0.00000000E+00  0.00000000E+00  0.00000000E+00
  0.00000000E+00  0.00000000E+00  0.00000000E+00
  0.00000000E+00  0.00000000E+00  0.00000000E+00
  0.00000000E+00  0.00000000E+00  0.00000000E+00
  0.00000000E+00  0.00000000E+00  0.00000000E+00
  0.00000000E+00  0.00000000E+00  0.00000000E+00
  0.00000000E+00  0.00000000E+00  0.00000000E+00
  0.00000000E+00  0.00000000E+00  0.00000000E+00
  0.00000000E+00  0.00000000E+00  0.00000000E+00
  0.00000000E+00  0.00000000E+00  0.00000000E+00
  0.00000000E+00  0.00000000E+00  0.00000000E+00
  0.00000000E+00  0.00000000E+00  0.00000000E+00
  0.00000000E+00  0.00000000E+00  0.00000000E+00
  0.00000000E+00  0.00000000E+00  0.00000000E+00
  0.00000000E+00  0.00000000E+00  0.00000000E+00
  0.00000000E+00  0.00000000E+00  0.00000000E+00
  0.00000000E+00  0.00000000E+00  0.00000000E+00
  0.00000000E+00  0.00000000E+00  0.00000000E+00
  0.00000000E+00  0.00000000E+00  0.00000000E+00
  0.00000000E+00  0.00000000E+00  0.00000000E+00
  0.00000000E+00  0.00000000E+00  0.00000000E+00
  0.00000000E+00  0.00000000E+00  0.00000000E+00
  0.00000000E+00  0.00000000E+00  0.00000000E+00
  0.00000000E+00  0.00000000E+00  0.00000000E+00
  0.00000000E+00  0.00000000E+00  0.00000000E+00
  0.00000000E+00  0.00000000E+00  0.00000000E+00
  0.00000000E+00  0.00000000E+00  0.00000000E+00
  0.00000000E+00  0.00000000E+00  0.00000000E+00
  0.00000000E+00  0.00000000E+00  0.00000000E+00
  0.00000000E+00  0.00000000E+00  0.00000000E+00
  0.00000000E+00  0.00000000E+00  0.00000000E+00
  0.00000000E+00  0.00000000E+00  0.00000000E+00
  0.00000000E+00  0.00000000E+00  0.00000000E+00
  0.00000000E+00  0.00000000E+00  0.00000000E+00
  0.00000000E+00  0.00000000E+00  0.00000000E+00
  0.00000000E+00  0.00000000E+00  0.00000000E+00
  0.00000000E+00  0.00000000E+00  0.00000000E+00
  0.00000000E+00  0.00000000E+00  0.00000000E+00
  0.00000000E+00  0.00000000E+00  0.00000000E+00
  0.00000000E+00  0.00000000E+00  0.00000000E+00
  0.00000000E+00  0.00000000E+00  0.00000000E+00
  0.00000000E+00  0.00000000E+00  0.00000000E+00
  0.00000000E+00  0.00000000E+00  0.00000000E+00
  0.00000000E+00  0.00000000E+00  0.00000000E+00
  0.00000000E+00  0.00000000E+00  0.00000000E+00
  0.00000000E+00  0.00000000E+00  0.00000000E+00
  0.00000000E+00  0.00000000E+00  0.00000000E+00
  0.00000000E+00  0.00000000E+00  0.00000000E+00
  0.00000000E+00  0.00000000E+00  0.00000000E+00
  0.00000000E+00  0.00000000E+00  0.00000000E+00
  0.00000000E+00  0.00000000E+00  0.00000000E+00
  0.00000000E+00  0.00000000E+00  0.00000000E+00
  0.00000000E+00  0.00000000E+00  0.00000000E+00
  0.00000000E+00  0.00000000E+00  0.00000000E+00
  0.00000000E+00  0.00000000E+00  0.00000000E+00
  0.00000000E+00  0.00000000E+00  0.00000000E+00
  0.00000000E+00  0.00000000E+00  0.00000000E+00
  0.00000000E+00  0.00000000E+00  0.00000000E+00
  0.00000000E+00  0.00000000E+00  0.00000000E+00
  0.00000000E+00  0.00000000E+00  0.00000000E+00
  0.00000000E+00  0.00000000E+00  0.00000000E+00
  0.00000000E+00  0.00000000E+00  0.00000000E+00
  0.00000000E+00  0.00000000E+00  0.00000000E+00
  0.00000000E+00  0.00000000E+00  0.00000000E+00
  0.00000000E+00  0.00000000E+00  0.00000000E+00
  0.00000000E+00  0.00000000E+00  0.00000000E+00
  0.00000000E+00  0.00000000E+00  0.00000000E+00
  0.00000000E+00  0.00000000E+00  0.00000000E+00
  0.00000000E+00  0.00000000E+00  0.00000000E+00
  0.00000000E+00  0.00000000E+00  0.00000000E+00
  0.00000000E+00  0.00000000E+00  0.00000000E+00
  0.00000000E+00  0.00000000E+00  0.00000000E+00
  0.00000000E+00  0.00000000E+00  0.00000000E+00
  0.00000000E+00  0.00000000E+00  0.00000000E+00
  0.00000000E+00  0.00000000E+00  0.00000000E+00
  0.00000000E+00  0.00000000E+00  0.00000000E+00
  0.00000000E+00  0.00000000E+00  0.00000000E+00
  0.00000000E+00  0.00000000E+00  0.00000000E+00
  0.00000000E+00  0.00000000E+00  0.00000000E+00
  0.00000000E+00  0.00000000E+00  0.00000000E+00
  0.00000000E+00  0.00000000E+00  0.00000000E+00
  0.00000000E+00  0.00000000E+00  0.00000000E+00
  0.00000000E+00  0.00000000E+00  0.00000000E+00
  0.00000000E+00  0.00000000E+00  0.00000000E+00
  0.00000000E+00  0.00000000E+00  0.00000000E+00
  0.00000000E+00  0.00000000E+00  0.00000000E+00
  0.00000000E+00  0.00000000E+00  0.00000000E+00
  0.00000000E+00  0.00000000E+00  0.00000000E+00
  0.00000000E+00  0.00000000E+00  0.00000000E+00
  0.00000000E+00  0.00000000E+00  0.00000000E+00
  0.00000000E+00  0.00000000E+00  0.00000000E+00
  0.00000000E+00  0.00000000E+00  0.00000000E+00
  0.00000000E+00  0.00000000E+00  0.00000000E+00
  0.00000000E+00  0.00000000E+00  0.00000000E+00
  0.00000000E+00  0.00000000E+00  0.00000000E+00
  0.00000000E+00  0.00000000E+00  0.00000000E+00
  0.00000000E+00  0.00000000E+00  0.00000000E+00
  0.00000000E+00  0.00000000E+00  0.00000000E+00
  0.00000000E+00  0.00000000E+00  0.00000000E+00
  0.00000000E+00  0.00000000E+00  0.00000000E+00
  0.00000000E+00  0.00000000E+00  0.00000000E+00
  0.00000000E+00  0.00000000E+00  0.00000000E+00
  0.00000000E+00  0.00000000E+00  0.00000000E+00
  0.00000000E+00  0.00000000E+00  0.00000000E+00
  0.00000000E+00  0.00000000E+00  0.00000000E+00
  0.00000000E+00  0.00000000E+00  0.00000000E+00
  0.00000000E+00  0.00000000E+00  0.00000000E+00
  0.00000000E+00  0.00000000E+00  0.00000000E+00
  0.00000000E+00  0.00000000E+00  0.00000000E+00
  0.00000000E+00  0.00000000E+00  0.00000000E+00
  0.00000000E+00  0.00000000E+00  0.00000000E+00
  0.00000000E+00  0.00000000E+00  0.00000000E+00
  0.00000000E+00  0.00000000E+00  0.00000000E+00
  0.00000000E+00  0.00000000E+00  0.00000000E+00
  0.00000000E+00  0.00000000E+00  0.00000000E+00
  0.00000000E+00  0.00000000E+00  0.00000000E+00
  0.00000000E+00  0.00000000E+00  0.00000000E+00
  0.00000000E+00  0.00000000E+00  0.00000000E+00
  0.00000000E+00  0.00000000E+00  0.00000000E+00
  0.00000000E+00  0.00000000E+00  0.00000000E+00
  0.00000000E+00  0.00000000E+00  0.00000000E+00
  0.00000000E+00  0.00000000E+00  0.00000000E+00
  0.00000000E+00  0.00000000E+00  0.00000000E+00
  0.00000000E+00  0.00000000E+00  0.00000000E+00
  0.00000000E+00  0.00000000E+00  0.00000000E+00
  0.00000000E+00  0.00000000E+00  0.00000000E+00
  0.00000000E+00  0.00000000E+00  0.00000000E+00
  0.00000000E+00  0.00000000E+00  0.00000000E+00
  0.00000000E+00  0.00000000E+00  0.00000000E+00
  0.00000000E+00  0.00000000E+00  0.00000000E+00
  0.00000000E+00  0.00000000E+00  0.00000000E+00
  0.00000000E+00  0.00000000E+00  0.00000000E+00
  0.00000000E+00  0.00000000E+00  0.00000000E+00
  0.00000000E+00  0.00000000E+00  0.00000000E+00
  0.00000000E+00  0.00000000E+00  0.00000000E+00
  0.00000000E+00  0.00000000E+00  0.00000000E+00
  0.00000000E+00  0.00000000E+00  0.00000000E+00
  0.00000000E+00  0.00000000E+00  0.00000000E+00
  0.00000000E+00  0.00000000E+00  0.00000000E+00
  0.00000000E+00  0.00000000E+00  0.00000000E+00
  0.00000000E+00  0.00000000E+00  0.00000000E+00
  0.00000000E+00  0.00000000E+00  0.00000000E+00
  0.00000000E+00  0.00000000E+00  0.00000000E+00
  0.00000000E+00  0.00000000E+00  0.00000000E+00
  0.00000000E+00  0.00000000E+00  0.00000000E+00
  0.00000000E+00  0.00000000E+00  0.00000000E+00
  0.00000000E+00  0.00000000E+00  0.00000000E+00
  0.00000000E+00  0.00000000E+00  0.00000000E+00
  0.00000000E+00  0.00000000E+00  0.00000000E+00
  0.00000000E+00  0.00000000E+00  0.00000000E+00
  0.00000000E+00  0.00000000E+00  0.00000000E+00
  0.00000000E+00  0.00000000E+00  0.00000000E+00
  0.00000000E+00  0.00000000E+00  0.00000000E+00
  0.00000000E+00  0.00000000E+00  0.00000000E+00
  0.00000000E+00  0.00000000E+00  0.00000000E+00
  0.00000000E+00  0.00000000E+00  0.00000000E+00
  0.00000000E+00  0.00000000E+00  0.00000000E+00
  0.00000000E+00  0.00000000E+00  0.00000000E+00
  0.00000000E+00  0.00000000E+00  0.00000000E+00
  0.00000000E+00  0.00000000E+00  0.00000000E+00
  0.00000000E+00  0.00000000E+00  0.00000000E+00
  0.00000000E+00  0.00000000E+00  0.00000000E+00
  0.00000000E+00  0.00000000E+00  0.00000000E+00
  0.00000000E+00  0.00000000E+00  0.00000000E+00
  0.00000000E+00  0.00000000E+00  0.00000000E+00
  0.00000000E+00  0.00000000E+00  0.00000000E+00
  0.00000000E+00  0.00000000E+00  0.00000000E+00
  0.00000000E+00  0.00000000E+00  0.00000000E+00
  0.00000000E+00  0.00000000E+00  0.00000000E+00
  0.00000000E+00  0.00000000E+00  0.00000000E+00
  0.00000000E+00  0.00000000E+00  0.00000000E+00
  0.00000000E+00  0.00000000E+00  0.00000000E+00
