New structure                           
   1.00000000000000     
     0.0000000000000000  -17.1805734624895479    0.0000000000000000
     0.0000000000000000   -8.5902867312447739  -14.8788130701007191
    30.0000000000000000    0.0000000000000000    0.0000000000000000
   Al  O
   252 1
Direct
  0.4444444444444429  0.4444444444444429  0.0787347296969561
  0.4444444444444429  0.7777777777777786  0.0787347296969561
  0.4444444444444429  0.1111111111111143  0.0787347296969561
  0.7777777777777786  0.4444444444444429  0.0787347296969561
  0.7777777777777786  0.7777777777777786  0.0787347296969561
  0.7777777777777786  0.1111111111111143  0.0787347296969561
  0.1111111111111143  0.4444444444444429  0.0787347296969561
  0.1111111111111143  0.7777777777777786  0.0787347296969561
  0.1111111111111143  0.1111111111111143  0.0787347296969561
  0.5555555555555571  0.5555555555555571  0.1570258436657281
  0.5555555555555571  0.8888888888888857  0.1570258436657281
  0.5555555555555571  0.2222222222222214  0.1570258436657281
  0.8888888888888857  0.5555555555555571  0.1570258436657281
  0.8888888888888857  0.8888888888888857  0.1570258436657281
  0.8888888888888857  0.2222222222222214  0.1570258436657281
  0.2222222222222214  0.5555555555555571  0.1570258436657281
  0.2222222222222214  0.8888888888888857  0.1570258436657281
  0.2222222222222214  0.2222222222222214  0.1570258436657281
  0.6666666666666643  0.6666666666666643  0.2337573993361574
  0.6666666666666643 -0.0000000000000000  0.2337573993361574
  0.6666666666666643  0.3333333333333357  0.2337573993361574
 -0.0000000000000000  0.6666666666666643  0.2337573993361574
  0.0000000000000000 -0.0000000000000000  0.2337573993361574
  0.0000000000000000  0.3333333333333357  0.2337573993361574
  0.3333333333333357  0.6666666666666643  0.2337573993361574
  0.3333333333333357  0.0000000000000000  0.2337573993361574
  0.3333333333333357  0.3333333333333357  0.2337573993361574
  0.7777777777777786  0.7777777777777786  0.3117306553444550
  0.7777777777777786  0.1111111111111143  0.3117306553444550
  0.7777777777777786  0.4444444444444429  0.3117306553444550
  0.1111111111111143  0.7777777777777786  0.3117306553444550
  0.1111111111111143  0.1111111111111143  0.3117306553444550
  0.1111111111111143  0.4444444444444429  0.3117306553444550
  0.4444444444444429  0.7777777777777786  0.3117306553444550
  0.4444444444444429  0.1111111111111143  0.3117306553444550
  0.4444444444444429  0.4444444444444429  0.3117306553444550
  0.8888888888888857  0.8888888888888857  0.3897039113527454
  0.8888888888888857  0.2222222222222214  0.3897039113527454
  0.8888888888888857  0.5555555555555571  0.3897039113527454
  0.2222222222222214  0.8888888888888857  0.3897039113527454
  0.2222222222222214  0.2222222222222214  0.3897039113527454
  0.2222222222222214  0.5555555555555571  0.3897039113527454
  0.5555555555555571  0.8888888888888857  0.3897039113527454
  0.5555555555555571  0.2222222222222214  0.3897039113527454
  0.5555555555555571  0.5555555555555571  0.3897039113527454
  0.0000000000000000 -0.0000000000000000  0.4664354670231750
 -0.0000000000000000  0.3333333333333357  0.4664354670231750
  0.0000000000000000  0.6666666666666643  0.4664354670231750
  0.3333333333333357 -0.0000000000000000  0.4664354670231750
  0.3333333333333357  0.3333333333333357  0.4664354670231750
  0.3333333333333357  0.6666666666666643  0.4664354670231750
  0.6666666666666643 -0.0000000000000000  0.4664354670231750
  0.6666666666666643  0.3333333333333357  0.4664354670231750
  0.6666666666666643  0.6666666666666643  0.4664354670231750
  0.1111111111111143  0.1111111111111143  0.5447265809919470
  0.1111111111111143  0.4444444444444429  0.5447265809919470
  0.1111111111111143  0.7777777777777786  0.5447265809919470
  0.4444444444444429  0.1111111111111143  0.5447265809919470
  0.4444444444444429  0.4444444444444429  0.5447265809919470
  0.4444444444444429  0.7777777777777786  0.5447265809919470
  0.7777777777777786  0.1111111111111143  0.5447265809919470
  0.7777777777777786  0.4444444444444429  0.5447265809919470
  0.7777777777777786  0.7777777777777786  0.5447265809919470
  0.2777777777777786  0.2777777777777786  0.0787347296969561
  0.2777777777777786  0.6111111111111143  0.0787347296969561
  0.2777777777777786  0.9444444444444429  0.0787347296969561
  0.6111111111111143  0.2777777777777786  0.0787347296969561
  0.6111111111111143  0.6111111111111143  0.0787347296969561
  0.6111111111111143  0.9444444444444429  0.0787347296969561
  0.9444444444444429  0.2777777777777786  0.0787347296969561
  0.9444444444444429  0.6111111111111143  0.0787347296969561
  0.9444444444444429  0.9444444444444429  0.0787347296969561
  0.3888888888888857  0.3888888888888857  0.1570258436657281
  0.3888888888888857  0.7222222222222214  0.1570258436657281
  0.3888888888888857  0.0555555555555571  0.1570258436657281
  0.7222222222222214  0.3888888888888857  0.1570258436657281
  0.7222222222222214  0.7222222222222214  0.1570258436657281
  0.7222222222222214  0.0555555555555571  0.1570258436657281
  0.0555555555555571  0.3888888888888857  0.1570258436657281
  0.0555555555555571  0.7222222222222214  0.1570258436657281
  0.0555555555555571  0.0555555555555571  0.1570258436657281
  0.5000000000000000  0.5000000000000000  0.2337573993361574
  0.5000000000000000  0.8333333333333357  0.2337573993361574
  0.5000000000000000  0.1666666666666643  0.2337573993361574
  0.8333333333333357  0.5000000000000000  0.2337573993361574
  0.8333333333333357  0.8333333333333357  0.2337573993361574
  0.8333333333333357  0.1666666666666643  0.2337573993361574
  0.1666666666666643  0.5000000000000000  0.2337573993361574
  0.1666666666666643  0.8333333333333357  0.2337573993361574
  0.1666666666666643  0.1666666666666643  0.2337573993361574
  0.6111111111111143  0.6111111111111143  0.3117306553444550
  0.6111111111111143  0.9444444444444429  0.3117306553444550
  0.6111111111111143  0.2777777777777786  0.3117306553444550
  0.9444444444444429  0.6111111111111143  0.3117306553444550
  0.9444444444444429  0.9444444444444429  0.3117306553444550
  0.9444444444444429  0.2777777777777786  0.3117306553444550
  0.2777777777777786  0.6111111111111143  0.3117306553444550
  0.2777777777777786  0.9444444444444429  0.3117306553444550
  0.2777777777777786  0.2777777777777786  0.3117306553444550
  0.7222222222222214  0.7222222222222214  0.3897039113527454
  0.7222222222222214  0.0555555555555571  0.3897039113527454
  0.7222222222222214  0.3888888888888857  0.3897039113527454
  0.0555555555555571  0.7222222222222214  0.3897039113527454
  0.0555555555555571  0.0555555555555571  0.3897039113527454
  0.0555555555555571  0.3888888888888857  0.3897039113527454
  0.3888888888888857  0.7222222222222214  0.3897039113527454
  0.3888888888888857  0.0555555555555571  0.3897039113527454
  0.3888888888888857  0.3888888888888857  0.3897039113527454
  0.8333333333333357  0.8333333333333357  0.4664354670231750
  0.8333333333333357  0.1666666666666643  0.4664354670231750
  0.8333333333333357  0.5000000000000000  0.4664354670231750
  0.1666666666666643  0.8333333333333357  0.4664354670231750
  0.1666666666666643  0.1666666666666643  0.4664354670231750
  0.1666666666666643  0.5000000000000000  0.4664354670231750
  0.5000000000000000  0.8333333333333357  0.4664354670231750
  0.5000000000000000  0.1666666666666643  0.4664354670231750
  0.5000000000000000  0.5000000000000000  0.4664354670231750
  0.9444444444444429  0.9444444444444429  0.5447265809919470
  0.9444444444444429  0.2777777777777786  0.5447265809919470
  0.9444444444444429  0.6111111111111143  0.5447265809919470
  0.2777777777777786  0.9444444444444429  0.5447265809919470
  0.2777777777777786  0.2777777777777786  0.5447265809919470
  0.2777777777777786  0.6111111111111143  0.5447265809919470
  0.6111111111111143  0.9444444444444429  0.5447265809919470
  0.6111111111111143  0.2777777777777786  0.5447265809919470
  0.6111111111111143  0.6111111111111143  0.5447265809919470
  0.2777777777777786  0.4444444444444429  0.0787347296969561
  0.2777777777777786  0.7777777777777786  0.0787347296969561
  0.2777777777777786  0.1111111111111143  0.0787347296969561
  0.6111111111111143  0.4444444444444429  0.0787347296969561
  0.6111111111111143  0.7777777777777786  0.0787347296969561
  0.6111111111111143  0.1111111111111143  0.0787347296969561
  0.9444444444444429  0.4444444444444429  0.0787347296969561
  0.9444444444444429  0.7777777777777786  0.0787347296969561
  0.9444444444444429  0.1111111111111143  0.0787347296969561
  0.3888888888888857  0.5555555555555571  0.1570258436657281
  0.3888888888888857  0.8888888888888857  0.1570258436657281
  0.3888888888888857  0.2222222222222214  0.1570258436657281
  0.7222222222222214  0.5555555555555571  0.1570258436657281
  0.7222222222222214  0.8888888888888857  0.1570258436657281
  0.7222222222222214  0.2222222222222214  0.1570258436657281
  0.0555555555555571  0.5555555555555571  0.1570258436657281
  0.0555555555555571  0.8888888888888857  0.1570258436657281
  0.0555555555555571  0.2222222222222214  0.1570258436657281
  0.5000000000000000  0.6666666666666643  0.2337573993361574
  0.5000000000000000 -0.0000000000000000  0.2337573993361574
  0.5000000000000000  0.3333333333333357  0.2337573993361574
  0.8333333333333357  0.6666666666666643  0.2337573993361574
  0.8333333333333357  0.0000000000000000  0.2337573993361574
  0.8333333333333357  0.3333333333333357  0.2337573993361574
  0.1666666666666643  0.6666666666666643  0.2337573993361574
  0.1666666666666643 -0.0000000000000000  0.2337573993361574
  0.1666666666666643  0.3333333333333357  0.2337573993361574
  0.6111111111111143  0.7777777777777786  0.3117306553444550
  0.6111111111111143  0.1111111111111143  0.3117306553444550
  0.6111111111111143  0.4444444444444429  0.3117306553444550
  0.9444444444444429  0.7777777777777786  0.3117306553444550
  0.9444444444444429  0.1111111111111143  0.3117306553444550
  0.9444444444444429  0.4444444444444429  0.3117306553444550
  0.2777777777777786  0.7777777777777786  0.3117306553444550
  0.2777777777777786  0.1111111111111143  0.3117306553444550
  0.2777777777777786  0.4444444444444429  0.3117306553444550
  0.7222222222222214  0.8888888888888857  0.3897039113527454
  0.7222222222222214  0.2222222222222214  0.3897039113527454
  0.7222222222222214  0.5555555555555571  0.3897039113527454
  0.0555555555555571  0.8888888888888857  0.3897039113527454
  0.0555555555555571  0.2222222222222214  0.3897039113527454
  0.0555555555555571  0.5555555555555571  0.3897039113527454
  0.3888888888888857  0.8888888888888857  0.3897039113527454
  0.3888888888888857  0.2222222222222214  0.3897039113527454
  0.3888888888888857  0.5555555555555571  0.3897039113527454
  0.8333333333333357 -0.0000000000000000  0.4664354670231750
  0.8333333333333357  0.3333333333333357  0.4664354670231750
  0.8333333333333357  0.6666666666666643  0.4664354670231750
  0.1666666666666643 -0.0000000000000000  0.4664354670231750
  0.1666666666666643  0.3333333333333357  0.4664354670231750
  0.1666666666666643  0.6666666666666643  0.4664354670231750
  0.5000000000000000 -0.0000000000000000  0.4664354670231750
  0.5000000000000000  0.3333333333333357  0.4664354670231750
  0.5000000000000000  0.6666666666666643  0.4664354670231750
  0.9444444444444429  0.1111111111111143  0.5447265809919470
  0.9444444444444429  0.4444444444444429  0.5447265809919470
  0.9444444444444429  0.7777777777777786  0.5447265809919470
  0.2777777777777786  0.1111111111111143  0.5447265809919470
  0.2777777777777786  0.4444444444444429  0.5447265809919470
  0.2777777777777786  0.7777777777777786  0.5447265809919470
  0.6111111111111143  0.1111111111111143  0.5447265809919470
  0.6111111111111143  0.4444444444444429  0.5447265809919470
  0.6111111111111143  0.7777777777777786  0.5447265809919470
  0.4444444444444429  0.2777777777777786  0.0787347296969561
  0.4444444444444429  0.6111111111111143  0.0787347296969561
  0.4444444444444429  0.9444444444444429  0.0787347296969561
  0.7777777777777786  0.2777777777777786  0.0787347296969561
  0.7777777777777786  0.6111111111111143  0.0787347296969561
  0.7777777777777786  0.9444444444444429  0.0787347296969561
  0.1111111111111143  0.2777777777777786  0.0787347296969561
  0.1111111111111143  0.6111111111111143  0.0787347296969561
  0.1111111111111143  0.9444444444444429  0.0787347296969561
  0.5555555555555571  0.3888888888888857  0.1570258436657281
  0.5555555555555571  0.7222222222222214  0.1570258436657281
  0.5555555555555571  0.0555555555555571  0.1570258436657281
  0.8888888888888857  0.3888888888888857  0.1570258436657281
  0.8888888888888857  0.7222222222222214  0.1570258436657281
  0.8888888888888857  0.0555555555555571  0.1570258436657281
  0.2222222222222214  0.3888888888888857  0.1570258436657281
  0.2222222222222214  0.7222222222222214  0.1570258436657281
  0.2222222222222214  0.0555555555555571  0.1570258436657281
  0.6666666666666643  0.5000000000000000  0.2337573993361574
  0.6666666666666643  0.8333333333333357  0.2337573993361574
  0.6666666666666643  0.1666666666666643  0.2337573993361574
  0.0000000000000000  0.5000000000000000  0.2337573993361574
  0.0000000000000000  0.8333333333333357  0.2337573993361574
  0.0000000000000000  0.1666666666666643  0.2337573993361574
  0.3333333333333357  0.5000000000000000  0.2337573993361574
  0.3333333333333357  0.8333333333333357  0.2337573993361574
  0.3333333333333357  0.1666666666666643  0.2337573993361574
  0.7777777777777786  0.6111111111111143  0.3117306553444550
  0.7777777777777786  0.9444444444444429  0.3117306553444550
  0.7777777777777786  0.2777777777777786  0.3117306553444550
  0.1111111111111143  0.6111111111111143  0.3117306553444550
  0.1111111111111143  0.9444444444444429  0.3117306553444550
  0.1111111111111143  0.2777777777777786  0.3117306553444550
  0.4444444444444429  0.6111111111111143  0.3117306553444550
  0.4444444444444429  0.9444444444444429  0.3117306553444550
  0.4444444444444429  0.2777777777777786  0.3117306553444550
  0.8888888888888857  0.7222222222222214  0.3897039113527454
  0.8888888888888857  0.0555555555555571  0.3897039113527454
  0.8888888888888857  0.3888888888888857  0.3897039113527454
  0.2222222222222214  0.7222222222222214  0.3897039113527454
  0.2222222222222214  0.0555555555555571  0.3897039113527454
  0.2222222222222214  0.3888888888888857  0.3897039113527454
  0.5555555555555571  0.7222222222222214  0.3897039113527454
  0.5555555555555571  0.0555555555555571  0.3897039113527454
  0.5555555555555571  0.3888888888888857  0.3897039113527454
 -0.0000000000000000  0.8333333333333357  0.4664354670231750
  0.0000000000000000  0.1666666666666643  0.4664354670231750
  0.0000000000000000  0.5000000000000000  0.4664354670231750
  0.3333333333333357  0.8333333333333357  0.4664354670231750
  0.3333333333333357  0.1666666666666643  0.4664354670231750
  0.3333333333333357  0.5000000000000000  0.4664354670231750
  0.6666666666666643  0.8333333333333357  0.4664354670231750
  0.6666666666666643  0.1666666666666643  0.4664354670231750
  0.6666666666666643  0.5000000000000000  0.4664354670231750
  0.1111111111111143  0.9444444444444429  0.5447265809919470
  0.1111111111111143  0.2777777777777786  0.5447265809919470
  0.1111111111111143  0.6111111111111143  0.5447265809919470
  0.4444444444444429  0.9444444444444429  0.5447265809919470
  0.4444444444444429  0.2777777777777786  0.5447265809919470
  0.4444444444444429  0.6111111111111143  0.5447265809919470
  0.7777777777777786  0.9444444444444429  0.5447265809919470
  0.7777777777777786  0.2777777777777786  0.5447265809919470
  0.7777777777777786  0.6111111111111143  0.5447265809919470
  0.3888888888888857  0.5555555555555571  0.49
