Ni  O                                   
    1.000000000000000     
    15.1462217587961998    0.0000000000000000    0.0000000000000000
     7.5731108793980804   13.1170128144700993    0.0000000000000000
     0.0000000000000000    0.0000000000000000   37.5999999999999943
   Ni   O 
   252   128
Direct
  0.4444501108813355  0.4444501108813355  0.0687422536264402
  0.4443394275965702  0.7778302862017148  0.0687635009212220
  0.4444501108813355  0.1110997782373290  0.0687422536264402
  0.7778302862017148  0.4443394275965702  0.0687635009212220
  0.7778302862017148  0.7778302862017148  0.0687635009212220
  0.7777771187218444  0.1111114406390813  0.0688145970688632
  0.1110997782373290  0.4444501108813355  0.0687422536264402
  0.1111114406390813  0.7777771187218444  0.0688145970688632
  0.1111114406390813  0.1111114406390813  0.0688145970688632
  0.5555475320289562  0.5555475320289562  0.1229283631809357
  0.5555475320289562  0.8889049359420871  0.1229283631809357
  0.5556465962071728  0.2221767018964135  0.1228762513075680
  0.8889049359420871  0.5555475320289562  0.1229283631809357
  0.8888945860109900  0.8888945860109900  0.1229099236583824
  0.8888945860109900  0.2222108279780133  0.1229099236583824
  0.2221767018964135  0.5556465962071728  0.1228762513075680
  0.2222108279780133  0.8888945860109900  0.1229099236583824
  0.2221767018964135  0.2221767018964135  0.1228762513075680
  0.6666666666666643  0.6666666666666643  0.1805910027141528
  0.6668489812808300 -0.0000263810164687  0.1806663717230795
  0.6668489812808300  0.3331773997356385  0.1806663717230795
 -0.0000263810164687  0.6668489812808300  0.1806663717230795
 -0.0000000000000000  0.0000000000000000  0.1806863818801132
 -0.0000263810164687  0.3331773997356385  0.1806663717230795
  0.3331773997356385  0.6668489812808300  0.1806663717230795
  0.3331773997356385 -0.0000263810164687  0.1806663717230795
  0.3333333333333357  0.3333333333333357  0.1806085957599949
  0.7777060020382319  0.7777060020382319  0.2394461340213258
  0.7778590487021897  0.1110704756489087  0.2398462123333828
  0.7777060020382319  0.4445879959235359  0.2394461340213258
  0.1110704756489087  0.7778590487021897  0.2398462123333828
  0.1110704756489087  0.1110704756489087  0.2398462123333828
  0.1110038924373569  0.4444980537813216  0.2399872720000030
  0.4445879959235359  0.7777060020382319  0.2394461340213258
  0.4444980537813216  0.1110038924373569  0.2399872720000030
  0.4444980537813216  0.4444980537813216  0.2399872720000030
  0.8882024124462826  0.8882024124462826  0.2927002886287082
  0.8882024124462826  0.2235951751074280  0.2927002886287082
  0.8894496076575978  0.5552751961712011  0.2949539306243205
  0.2235951751074280  0.8882024124462826  0.2927002886287082
  0.2228536965536983  0.2228536965536983  0.2938547716420924
  0.2228536965536983  0.5542926068926033  0.2938547716420924
  0.5552751961712011  0.8894496076575978  0.2949539306243205
  0.5542926068926033  0.2228536965536983  0.2938547716420924
  0.5552751961712011  0.5552751961712011  0.2949539306243205
 -0.0000000000000000  0.0000000000000000  0.3473010111553588
  0.0000027104353923  0.3330515031952209  0.3462309490855952
  0.0000027104353923  0.6669457863693870  0.3462309490855952
  0.3330515031952209  0.0000027104353923  0.3462309490855952
  0.3333333333333357  0.3333333333333357  0.3460823733474024
  0.3330515031952209  0.6669457863693870  0.3462309490855952
  0.6669457863693868  0.0000027104353923  0.3462309490855952
  0.6669457863693868  0.3330515031952209  0.3462309490855952
  0.6666666666666643  0.6666666666666643  0.3456704353955707
  0.1055250033793345  0.1055250033793345  0.3929995460035812
  0.1125623082922612  0.4437188458538695  0.3985103039802886
  0.1055250033793345  0.7889499932413379  0.3929995460035812
  0.4437188458538695  0.1125623082922612  0.3985103039802886
  0.4437188458538695  0.4437188458538695  0.3985103039802886
  0.4432166006973781  0.7783916996513107  0.3981435614477958
  0.7889499932413379  0.1055250033793345  0.3929995460035812
  0.7783916996513107  0.4432166006973781  0.3981435614477958
  0.7783916996513107  0.7783916996513107  0.3981435614477958
  0.2778302862017148  0.2778302862017148  0.0687635009212220
  0.2777771187218445  0.6111114406390812  0.0688145970688632
  0.2778302862017148  0.9443394275965703  0.0687635009212220
  0.6111114406390812  0.2777771187218445  0.0688145970688632
  0.6111114406390812  0.6111114406390812  0.0688145970688632
  0.6110997782373291  0.9444501108813356  0.0687422536264402
  0.9443394275965703  0.2778302862017148  0.0687635009212220
  0.9444501108813356  0.6110997782373291  0.0687422536264402
  0.9444501108813356  0.9444501108813356  0.0687422536264402
  0.3888945860109898  0.3888945860109898  0.1229099236583824
  0.3888945860109898  0.7222108279780134  0.1229099236583824
  0.3889049359420871  0.0555475320289564  0.1229283631809357
  0.7222108279780134  0.3888945860109898  0.1229099236583824
  0.7221767018964133  0.7221767018964133  0.1228762513075680
  0.7221767018964133  0.0556465962071729  0.1228762513075680
  0.0555475320289564  0.3889049359420871  0.1229283631809357
  0.0556465962071729  0.7221767018964133  0.1228762513075680
  0.0555475320289564  0.0555475320289564  0.1229283631809357
  0.5000000000000000  0.5000000000000000  0.1806863818801132
  0.4999736189835313  0.8331773997356385  0.1806663717230795
  0.4999736189835313  0.1668489812808302  0.1806663717230795
  0.8331773997356385  0.4999736189835313  0.1806663717230795
  0.8333333333333357  0.8333333333333357  0.1806085957599949
  0.8331773997356385  0.1668489812808302  0.1806663717230795
  0.1668489812808302  0.4999736189835313  0.1806663717230795
  0.1668489812808302  0.8331773997356385  0.1806663717230795
  0.1666666666666643  0.1666666666666643  0.1805910027141528
  0.6110704756489087  0.6110704756489087  0.2398462123333828
  0.6110038924373569  0.9444980537813216  0.2399872720000030
  0.6110704756489087  0.2778590487021897  0.2398462123333828
  0.9444980537813216  0.6110038924373569  0.2399872720000030
  0.9444980537813216  0.9444980537813216  0.2399872720000030
  0.9445879959235355  0.2777060020382323  0.2394461340213258
  0.2778590487021897  0.6110704756489087  0.2398462123333828
  0.2777060020382323  0.9445879959235355  0.2394461340213258
  0.2777060020382323  0.2777060020382323  0.2394461340213258
  0.7228536965536981  0.7228536965536981  0.2938547716420924
  0.7228536965536981  0.0542926068926033  0.2938547716420924
  0.7235951751074280  0.3882024124462825  0.2927002886287082
  0.0542926068926033  0.7228536965536981  0.2938547716420924
  0.0552751961712011  0.0552751961712011  0.2949539306243205
  0.0552751961712011  0.3894496076575978  0.2949539306243205
  0.3882024124462825  0.7235951751074280  0.2927002886287082
  0.3894496076575978  0.0552751961712011  0.2949539306243205
  0.3882024124462825  0.3882024124462825  0.2927002886287082
  0.8333333333333357  0.8333333333333357  0.3460823733474024
  0.8330515031952210  0.1669457863693868  0.3462309490855952
  0.8330515031952210  0.5000027104353925  0.3462309490855952
  0.1669457863693868  0.8330515031952210  0.3462309490855952
  0.1666666666666643  0.1666666666666643  0.3456704353955707
  0.1669457863693868  0.5000027104353925  0.3462309490855952
  0.5000027104353925  0.8330515031952210  0.3462309490855952
  0.5000027104353925  0.1669457863693868  0.3462309490855952
  0.5000000000000000  0.5000000000000000  0.3473010111553588
  0.9437188458538693  0.9437188458538693  0.3985103039802886
  0.9432166006973780  0.2783916996513110  0.3981435614477958
  0.9437188458538693  0.6125623082922610  0.3985103039802886
  0.2783916996513110  0.9432166006973780  0.3981435614477958
  0.2783916996513110  0.2783916996513110  0.3981435614477958
  0.2889499932413381  0.6055250033793345  0.3929995460035812
  0.6125623082922610  0.9437188458538693  0.3985103039802886
  0.6055250033793345  0.2889499932413381  0.3929995460035812
  0.6055250033793345  0.6055250033793345  0.3929995460035812
  0.2778302862017148  0.4443394275965702  0.0687635009212220
  0.2778302862017148  0.7778302862017148  0.0687635009212220
  0.2777771187218445  0.1111114406390813  0.0688145970688632
  0.6110997782373291  0.4444501108813355  0.0687422536264402
  0.6111114406390812  0.7777771187218444  0.0688145970688632
  0.6111114406390812  0.1111114406390813  0.0688145970688632
  0.9444501108813356  0.4444501108813355  0.0687422536264402
  0.9443394275965703  0.7778302862017148  0.0687635009212220
  0.9444501108813356  0.1110997782373290  0.0687422536264402
  0.3889049359420871  0.5555475320289562  0.1229283631809357
  0.3888945860109898  0.8888945860109900  0.1229099236583824
  0.3888945860109898  0.2222108279780133  0.1229099236583824
  0.7221767018964133  0.5556465962071728  0.1228762513075680
  0.7222108279780134  0.8888945860109900  0.1229099236583824
  0.7221767018964133  0.2221767018964135  0.1228762513075680
  0.0555475320289564  0.5555475320289562  0.1229283631809357
  0.0555475320289564  0.8889049359420871  0.1229283631809357
  0.0556465962071729  0.2221767018964135  0.1228762513075680
  0.4999736189835313  0.6668489812808300  0.1806663717230795
  0.5000000000000000  0.0000000000000000  0.1806863818801132
  0.4999736189835313  0.3331773997356385  0.1806663717230795
  0.8331773997356385  0.6668489812808300  0.1806663717230795
  0.8331773997356385 -0.0000263810164687  0.1806663717230795
  0.8333333333333357  0.3333333333333357  0.1806085957599949
  0.1666666666666643  0.6666666666666643  0.1805910027141528
  0.1668489812808302 -0.0000263810164687  0.1806663717230795
  0.1668489812808302  0.3331773997356385  0.1806663717230795
  0.6110704756489087  0.7778590487021897  0.2398462123333828
  0.6110704756489087  0.1110704756489087  0.2398462123333828
  0.6110038924373569  0.4444980537813216  0.2399872720000030
  0.9445879959235355  0.7777060020382319  0.2394461340213258
  0.9444980537813216  0.1110038924373569  0.2399872720000030
  0.9444980537813216  0.4444980537813216  0.2399872720000030
  0.2777060020382323  0.7777060020382319  0.2394461340213258
  0.2778590487021897  0.1110704756489087  0.2398462123333828
  0.2777060020382323  0.4445879959235359  0.2394461340213258
  0.7235951751074280  0.8882024124462826  0.2927002886287082
  0.7228536965536981  0.2228536965536983  0.2938547716420924
  0.7228536965536981  0.5542926068926033  0.2938547716420924
  0.0552751961712011  0.8894496076575978  0.2949539306243205
  0.0542926068926033  0.2228536965536983  0.2938547716420924
  0.0552751961712011  0.5552751961712011  0.2949539306243205
  0.3882024124462825  0.8882024124462826  0.2927002886287082
  0.3882024124462825  0.2235951751074280  0.2927002886287082
  0.3894496076575978  0.5552751961712011  0.2949539306243205
  0.8330515031952210  0.0000027104353923  0.3462309490855952
  0.8333333333333357  0.3333333333333357  0.3460823733474024
  0.8330515031952210  0.6669457863693870  0.3462309490855952
  0.1669457863693868  0.0000027104353923  0.3462309490855952
  0.1669457863693868  0.3330515031952209  0.3462309490855952
  0.1666666666666643  0.6666666666666643  0.3456704353955707
  0.5000000000000000  0.0000000000000000  0.3473010111553588
  0.5000027104353925  0.3330515031952209  0.3462309490855952
  0.5000027104353925  0.6669457863693870  0.3462309490855952
  0.9437188458538693  0.1125623082922612  0.3985103039802886
  0.9437188458538693  0.4437188458538695  0.3985103039802886
  0.9432166006973780  0.7783916996513107  0.3981435614477958
  0.2889499932413381  0.1055250033793345  0.3929995460035812
  0.2783916996513110  0.4432166006973781  0.3981435614477958
  0.2783916996513110  0.7783916996513107  0.3981435614477958
  0.6055250033793345  0.1055250033793345  0.3929995460035812
  0.6125623082922610  0.4437188458538695  0.3985103039802886
  0.6055250033793345  0.7889499932413379  0.3929995460035812
  0.4443394275965702  0.2778302862017148  0.0687635009212220
  0.4444501108813355  0.6110997782373291  0.0687422536264402
  0.4444501108813355  0.9444501108813356  0.0687422536264402
  0.7778302862017148  0.2778302862017148  0.0687635009212220
  0.7777771187218444  0.6111114406390812  0.0688145970688632
  0.7778302862017148  0.9443394275965703  0.0687635009212220
  0.1111114406390813  0.2777771187218445  0.0688145970688632
  0.1111114406390813  0.6111114406390812  0.0688145970688632
  0.1110997782373290  0.9444501108813356  0.0687422536264402
  0.5555475320289562  0.3889049359420871  0.1229283631809357
  0.5556465962071728  0.7221767018964133  0.1228762513075680
  0.5555475320289562  0.0555475320289564  0.1229283631809357
  0.8888945860109900  0.3888945860109898  0.1229099236583824
  0.8888945860109900  0.7222108279780134  0.1229099236583824
  0.8889049359420871  0.0555475320289564  0.1229283631809357
  0.2222108279780133  0.3888945860109898  0.1229099236583824
  0.2221767018964135  0.7221767018964133  0.1228762513075680
  0.2221767018964135  0.0556465962071729  0.1228762513075680
  0.6668489812808300  0.4999736189835313  0.1806663717230795
  0.6668489812808300  0.8331773997356385  0.1806663717230795
  0.6666666666666643  0.1666666666666643  0.1805910027141528
 -0.0000000000000000  0.5000000000000000  0.1806863818801132
 -0.0000263810164687  0.8331773997356385  0.1806663717230795
 -0.0000263810164687  0.1668489812808302  0.1806663717230795
  0.3331773997356385  0.4999736189835313  0.1806663717230795
  0.3333333333333357  0.8333333333333357  0.1806085957599949
  0.3331773997356385  0.1668489812808302  0.1806663717230795
  0.7778590487021897  0.6110704756489087  0.2398462123333828
  0.7777060020382319  0.9445879959235355  0.2394461340213258
  0.7777060020382319  0.2777060020382323  0.2394461340213258
  0.1110704756489087  0.6110704756489087  0.2398462123333828
  0.1110038924373569  0.9444980537813216  0.2399872720000030
  0.1110704756489087  0.2778590487021897  0.2398462123333828
  0.4444980537813216  0.6110038924373569  0.2399872720000030
  0.4444980537813216  0.9444980537813216  0.2399872720000030
  0.4445879959235359  0.2777060020382323  0.2394461340213258
  0.8882024124462826  0.7235951751074280  0.2927002886287082
  0.8894496076575978  0.0552751961712011  0.2949539306243205
  0.8882024124462826  0.3882024124462825  0.2927002886287082
  0.2228536965536983  0.7228536965536981  0.2938547716420924
  0.2228536965536983  0.0542926068926033  0.2938547716420924
  0.2235951751074280  0.3882024124462825  0.2927002886287082
  0.5542926068926033  0.7228536965536981  0.2938547716420924
  0.5552751961712011  0.0552751961712011  0.2949539306243205
  0.5552751961712011  0.3894496076575978  0.2949539306243205
  0.0000027104353923  0.8330515031952210  0.3462309490855952
  0.0000027104353923  0.1669457863693868  0.3462309490855952
 -0.0000000000000000  0.5000000000000000  0.3473010111553588
  0.3333333333333357  0.8333333333333357  0.3460823733474024
  0.3330515031952209  0.1669457863693868  0.3462309490855952
  0.3330515031952209  0.5000027104353925  0.3462309490855952
  0.6669457863693870  0.8330515031952210  0.3462309490855952
  0.6666666666666643  0.1666666666666643  0.3456704353955707
  0.6669457863693868  0.5000027104353925  0.3462309490855952
  0.1125623082922612  0.9437188458538693  0.3985103039802886
  0.1055250033793345  0.2889499932413381  0.3929995460035812
  0.1055250033793345  0.6055250033793345  0.3929995460035812
  0.4437188458538695  0.9437188458538693  0.3985103039802886
  0.4432166006973781  0.2783916996513110  0.3981435614477958
  0.4437188458538695  0.6125623082922610  0.3985103039802886
  0.7783916996513107  0.9432166006973780  0.3981435614477958
  0.7783916996513107  0.2783916996513110  0.3981435614477958
  0.7889499932413379  0.6055250033793345  0.3929995460035812
 -0.0000000000000000  0.0000000000000000  0.4642360827090313
 -0.0000000000000000  0.0000000000000000  0.4965196364864017
  0.0049868583863001  0.1269775430824457  0.4663629330971898
  0.0037934956548204  0.1261252749449528  0.4987591519645831
  0.0257494989752710  0.2371252505123645  0.4661263439215555
  0.0251668185582756  0.2374165907208622  0.5003533510222130
  0.0049868583863001  0.3680355985312543  0.4663629330971898
  0.0037934956548204  0.3700812294002269  0.4987591519645831
 -0.0000000000000000  0.5000000000000000  0.4642360827090313
 -0.0000000000000000  0.5000000000000000  0.4965196364864017
  0.0049868583863001  0.6269775430824455  0.4663629330971898
  0.0037934956548204  0.6261252749449528  0.4987591519645831
  0.0257494989752711  0.7371252505123644  0.4661263439215555
  0.0251668185582756  0.7374165907208624  0.5003533510222130
  0.0049868583863001  0.8680355985312542  0.4663629330971898
  0.0037934956548204  0.8700812294002267  0.4987591519645831
  0.1269775430824457  0.0049868583863001  0.4663629330971898
  0.1261252749449528  0.0037934956548204  0.4987591519645831
  0.1217497067518847  0.1217497067518847  0.4350299351723259
  0.1334402041999757  0.1334402041999756  0.5440314504997741
  0.1217497067518846  0.2565005864962306  0.4350299351723259
  0.1334402041999756  0.2331195916000486  0.5440314504997741
  0.1269775430824457  0.3680355985312543  0.4663629330971898
  0.1261252749449528  0.3700812294002269  0.4987591519645831
  0.1269775430824457  0.5049868583862998  0.4663629330971898
  0.1261252749449528  0.5037934956548206  0.4987591519645831
  0.1217497067518847  0.6217497067518849  0.4350299351723259
  0.1334402041999757  0.6334402041999757  0.5440314504997741
  0.1217497067518846  0.7565005864962304  0.4350299351723259
  0.1334402041999757  0.7331195916000487  0.5440314504997741
  0.1269775430824457  0.8680355985312542  0.4663629330971898
  0.1261252749449528  0.8700812294002267  0.4987591519645831
  0.2371252505123645  0.0257494989752710  0.4661263439215555
  0.2374165907208622  0.0251668185582756  0.5003533510222130
  0.2565005864962307  0.1217497067518847  0.4350299351723259
  0.2331195916000486  0.1334402041999757  0.5440314504997741
  0.2371252505123645  0.2371252505123645  0.4661263439215555
  0.2374165907208622  0.2374165907208622  0.5003533510222130
  0.2487758996121454  0.3756120501939273  0.4654315911749487
  0.2496252350376717  0.3751873824811642  0.4977691286998985
  0.2371252505123645  0.5257494989752711  0.4661263439215555
  0.2374165907208622  0.5251668185582756  0.5003533510222130
  0.2565005864962307  0.6217497067518849  0.4350299351723259
  0.2331195916000486  0.6334402041999757  0.5440314504997741
  0.2371252505123645  0.7371252505123644  0.4661263439215555
  0.2374165907208622  0.7374165907208624  0.5003533510222130
  0.2487758996121454  0.8756120501939274  0.4654315911749487
  0.2496252350376717  0.8751873824811643  0.4977691286998985
  0.3680355985312543  0.0049868583863001  0.4663629330971898
  0.3700812294002269  0.0037934956548204  0.4987591519645831
  0.3680355985312543  0.1269775430824457  0.4663629330971898
  0.3700812294002269  0.1261252749449528  0.4987591519645831
  0.3756120501939273  0.2487758996121454  0.4654315911749487
  0.3751873824811642  0.2496252350376717  0.4977691286998985
  0.3756120501939273  0.3756120501939273  0.4654315911749487
  0.3751873824811642  0.3751873824811642  0.4977691286998985
  0.3680355985312543  0.5049868583862998  0.4663629330971898
  0.3700812294002269  0.5037934956548206  0.4987591519645831
  0.3680355985312543  0.6269775430824455  0.4663629330971898
  0.3700812294002269  0.6261252749449528  0.4987591519645831
  0.3756120501939273  0.7487758996121453  0.4654315911749487
  0.3751873824811642  0.7496252350376715  0.4977691286998985
  0.3756120501939273  0.8756120501939274  0.4654315911749487
  0.3751873824811642  0.8751873824811643  0.4977691286998985
  0.5000000000000000  0.0000000000000000  0.4642360827090313
  0.5000000000000000  0.0000000000000000  0.4965196364864017
  0.5049868583862998  0.1269775430824457  0.4663629330971898
  0.5037934956548206  0.1261252749449528  0.4987591519645831
  0.5257494989752711  0.2371252505123645  0.4661263439215555
  0.5251668185582756  0.2374165907208622  0.5003533510222130
  0.5049868583862998  0.3680355985312543  0.4663629330971898
  0.5037934956548206  0.3700812294002269  0.4987591519645831
  0.5000000000000000  0.5000000000000000  0.4642360827090313
  0.5000000000000000  0.5000000000000000  0.4965196364864017
  0.5049868583862998  0.6269775430824455  0.4663629330971898
  0.5037934956548206  0.6261252749449528  0.4987591519645831
  0.5257494989752711  0.7371252505123644  0.4661263439215555
  0.5251668185582756  0.7374165907208624  0.5003533510222130
  0.5049868583862998  0.8680355985312542  0.4663629330971898
  0.5037934956548206  0.8700812294002267  0.4987591519645831
  0.6269775430824455  0.0049868583863001  0.4663629330971898
  0.6261252749449528  0.0037934956548204  0.4987591519645831
  0.6217497067518849  0.1217497067518847  0.4350299351723259
  0.6334402041999756  0.1334402041999757  0.5440314504997741
  0.6217497067518849  0.2565005864962306  0.4350299351723259
  0.6334402041999757  0.2331195916000486  0.5440314504997741
  0.6269775430824456  0.3680355985312543  0.4663629330971898
  0.6261252749449528  0.3700812294002269  0.4987591519645831
  0.6269775430824455  0.5049868583862998  0.4663629330971898
  0.6261252749449528  0.5037934956548206  0.4987591519645831
  0.6217497067518849  0.6217497067518849  0.4350299351723259
  0.6334402041999756  0.6334402041999757  0.5440314504997741
  0.6217497067518849  0.7565005864962304  0.4350299351723259
  0.6334402041999757  0.7331195916000487  0.5440314504997741
  0.6269775430824456  0.8680355985312543  0.4663629330971898
  0.6261252749449528  0.8700812294002267  0.4987591519645831
  0.7371252505123644  0.0257494989752711  0.4661263439215555
  0.7374165907208624  0.0251668185582756  0.5003533510222130
  0.7565005864962304  0.1217497067518847  0.4350299351723259
  0.7331195916000487  0.1334402041999757  0.5440314504997741
  0.7371252505123644  0.2371252505123645  0.4661263439215555
  0.7374165907208624  0.2374165907208622  0.5003533510222130
  0.7487758996121453  0.3756120501939273  0.4654315911749487
  0.7496252350376715  0.3751873824811642  0.4977691286998985
  0.7371252505123644  0.5257494989752711  0.4661263439215555
  0.7374165907208624  0.5251668185582756  0.5003533510222130
  0.7565005864962304  0.6217497067518849  0.4350299351723259
  0.7331195916000487  0.6334402041999757  0.5440314504997741
  0.7371252505123644  0.7371252505123644  0.4661263439215555
  0.7374165907208624  0.7374165907208624  0.5003533510222130
  0.7487758996121453  0.8756120501939274  0.4654315911749487
  0.7496252350376715  0.8751873824811643  0.4977691286998985
  0.8680355985312543  0.0049868583863001  0.4663629330971898
  0.8700812294002267  0.0037934956548204  0.4987591519645831
  0.8680355985312542  0.1269775430824457  0.4663629330971898
  0.8700812294002267  0.1261252749449528  0.4987591519645831
  0.8756120501939274  0.2487758996121454  0.4654315911749487
  0.8751873824811643  0.2496252350376717  0.4977691286998985
  0.8756120501939274  0.3756120501939273  0.4654315911749487
  0.8751873824811643  0.3751873824811642  0.4977691286998985
  0.8680355985312543  0.5049868583862998  0.4663629330971898
  0.8700812294002267  0.5037934956548206  0.4987591519645831
  0.8680355985312542  0.6269775430824455  0.4663629330971898
  0.8700812294002267  0.6261252749449528  0.4987591519645831
  0.8756120501939274  0.7487758996121453  0.4654315911749487
  0.8751873824811643  0.7496252350376715  0.4977691286998985
  0.8756120501939274  0.8756120501939274  0.4654315911749487
  0.8751873824811643  0.8751873824811643  0.4977691286998985
 
  0.00000000E+00  0.00000000E+00  0.00000000E+00
  0.00000000E+00  0.00000000E+00  0.00000000E+00
  0.00000000E+00  0.00000000E+00  0.00000000E+00
  0.00000000E+00  0.00000000E+00  0.00000000E+00
  0.00000000E+00  0.00000000E+00  0.00000000E+00
  0.00000000E+00  0.00000000E+00  0.00000000E+00
  0.00000000E+00  0.00000000E+00  0.00000000E+00
  0.00000000E+00  0.00000000E+00  0.00000000E+00
  0.00000000E+00  0.00000000E+00  0.00000000E+00
  0.00000000E+00  0.00000000E+00  0.00000000E+00
  0.00000000E+00  0.00000000E+00  0.00000000E+00
  0.00000000E+00  0.00000000E+00  0.00000000E+00
  0.00000000E+00  0.00000000E+00  0.00000000E+00
  0.00000000E+00  0.00000000E+00  0.00000000E+00
  0.00000000E+00  0.00000000E+00  0.00000000E+00
  0.00000000E+00  0.00000000E+00  0.00000000E+00
  0.00000000E+00  0.00000000E+00  0.00000000E+00
  0.00000000E+00  0.00000000E+00  0.00000000E+00
  0.00000000E+00  0.00000000E+00  0.00000000E+00
  0.00000000E+00  0.00000000E+00  0.00000000E+00
  0.00000000E+00  0.00000000E+00  0.00000000E+00
  0.00000000E+00  0.00000000E+00  0.00000000E+00
  0.00000000E+00  0.00000000E+00  0.00000000E+00
  0.00000000E+00  0.00000000E+00  0.00000000E+00
  0.00000000E+00  0.00000000E+00  0.00000000E+00
  0.00000000E+00  0.00000000E+00  0.00000000E+00
  0.00000000E+00  0.00000000E+00  0.00000000E+00
  0.00000000E+00  0.00000000E+00  0.00000000E+00
  0.00000000E+00  0.00000000E+00  0.00000000E+00
  0.00000000E+00  0.00000000E+00  0.00000000E+00
  0.00000000E+00  0.00000000E+00  0.00000000E+00
  0.00000000E+00  0.00000000E+00  0.00000000E+00
  0.00000000E+00  0.00000000E+00  0.00000000E+00
  0.00000000E+00  0.00000000E+00  0.00000000E+00
  0.00000000E+00  0.00000000E+00  0.00000000E+00
  0.00000000E+00  0.00000000E+00  0.00000000E+00
  0.00000000E+00  0.00000000E+00  0.00000000E+00
  0.00000000E+00  0.00000000E+00  0.00000000E+00
  0.00000000E+00  0.00000000E+00  0.00000000E+00
  0.00000000E+00  0.00000000E+00  0.00000000E+00
  0.00000000E+00  0.00000000E+00  0.00000000E+00
  0.00000000E+00  0.00000000E+00  0.00000000E+00
  0.00000000E+00  0.00000000E+00  0.00000000E+00
  0.00000000E+00  0.00000000E+00  0.00000000E+00
  0.00000000E+00  0.00000000E+00  0.00000000E+00
  0.00000000E+00  0.00000000E+00  0.00000000E+00
  0.00000000E+00  0.00000000E+00  0.00000000E+00
  0.00000000E+00  0.00000000E+00  0.00000000E+00
  0.00000000E+00  0.00000000E+00  0.00000000E+00
  0.00000000E+00  0.00000000E+00  0.00000000E+00
  0.00000000E+00  0.00000000E+00  0.00000000E+00
  0.00000000E+00  0.00000000E+00  0.00000000E+00
  0.00000000E+00  0.00000000E+00  0.00000000E+00
  0.00000000E+00  0.00000000E+00  0.00000000E+00
  0.00000000E+00  0.00000000E+00  0.00000000E+00
  0.00000000E+00  0.00000000E+00  0.00000000E+00
  0.00000000E+00  0.00000000E+00  0.00000000E+00
  0.00000000E+00  0.00000000E+00  0.00000000E+00
  0.00000000E+00  0.00000000E+00  0.00000000E+00
  0.00000000E+00  0.00000000E+00  0.00000000E+00
  0.00000000E+00  0.00000000E+00  0.00000000E+00
  0.00000000E+00  0.00000000E+00  0.00000000E+00
  0.00000000E+00  0.00000000E+00  0.00000000E+00
  0.00000000E+00  0.00000000E+00  0.00000000E+00
  0.00000000E+00  0.00000000E+00  0.00000000E+00
  0.00000000E+00  0.00000000E+00  0.00000000E+00
  0.00000000E+00  0.00000000E+00  0.00000000E+00
  0.00000000E+00  0.00000000E+00  0.00000000E+00
  0.00000000E+00  0.00000000E+00  0.00000000E+00
  0.00000000E+00  0.00000000E+00  0.00000000E+00
  0.00000000E+00  0.00000000E+00  0.00000000E+00
  0.00000000E+00  0.00000000E+00  0.00000000E+00
  0.00000000E+00  0.00000000E+00  0.00000000E+00
  0.00000000E+00  0.00000000E+00  0.00000000E+00
  0.00000000E+00  0.00000000E+00  0.00000000E+00
  0.00000000E+00  0.00000000E+00  0.00000000E+00
  0.00000000E+00  0.00000000E+00  0.00000000E+00
  0.00000000E+00  0.00000000E+00  0.00000000E+00
  0.00000000E+00  0.00000000E+00  0.00000000E+00
  0.00000000E+00  0.00000000E+00  0.00000000E+00
  0.00000000E+00  0.00000000E+00  0.00000000E+00
  0.00000000E+00  0.00000000E+00  0.00000000E+00
  0.00000000E+00  0.00000000E+00  0.00000000E+00
  0.00000000E+00  0.00000000E+00  0.00000000E+00
  0.00000000E+00  0.00000000E+00  0.00000000E+00
  0.00000000E+00  0.00000000E+00  0.00000000E+00
  0.00000000E+00  0.00000000E+00  0.00000000E+00
  0.00000000E+00  0.00000000E+00  0.00000000E+00
  0.00000000E+00  0.00000000E+00  0.00000000E+00
  0.00000000E+00  0.00000000E+00  0.00000000E+00
  0.00000000E+00  0.00000000E+00  0.00000000E+00
  0.00000000E+00  0.00000000E+00  0.00000000E+00
  0.00000000E+00  0.00000000E+00  0.00000000E+00
  0.00000000E+00  0.00000000E+00  0.00000000E+00
  0.00000000E+00  0.00000000E+00  0.00000000E+00
  0.00000000E+00  0.00000000E+00  0.00000000E+00
  0.00000000E+00  0.00000000E+00  0.00000000E+00
  0.00000000E+00  0.00000000E+00  0.00000000E+00
  0.00000000E+00  0.00000000E+00  0.00000000E+00
  0.00000000E+00  0.00000000E+00  0.00000000E+00
  0.00000000E+00  0.00000000E+00  0.00000000E+00
  0.00000000E+00  0.00000000E+00  0.00000000E+00
  0.00000000E+00  0.00000000E+00  0.00000000E+00
  0.00000000E+00  0.00000000E+00  0.00000000E+00
  0.00000000E+00  0.00000000E+00  0.00000000E+00
  0.00000000E+00  0.00000000E+00  0.00000000E+00
  0.00000000E+00  0.00000000E+00  0.00000000E+00
  0.00000000E+00  0.00000000E+00  0.00000000E+00
  0.00000000E+00  0.00000000E+00  0.00000000E+00
  0.00000000E+00  0.00000000E+00  0.00000000E+00
  0.00000000E+00  0.00000000E+00  0.00000000E+00
  0.00000000E+00  0.00000000E+00  0.00000000E+00
  0.00000000E+00  0.00000000E+00  0.00000000E+00
  0.00000000E+00  0.00000000E+00  0.00000000E+00
  0.00000000E+00  0.00000000E+00  0.00000000E+00
  0.00000000E+00  0.00000000E+00  0.00000000E+00
  0.00000000E+00  0.00000000E+00  0.00000000E+00
  0.00000000E+00  0.00000000E+00  0.00000000E+00
  0.00000000E+00  0.00000000E+00  0.00000000E+00
  0.00000000E+00  0.00000000E+00  0.00000000E+00
  0.00000000E+00  0.00000000E+00  0.00000000E+00
  0.00000000E+00  0.00000000E+00  0.00000000E+00
  0.00000000E+00  0.00000000E+00  0.00000000E+00
  0.00000000E+00  0.00000000E+00  0.00000000E+00
  0.00000000E+00  0.00000000E+00  0.00000000E+00
  0.00000000E+00  0.00000000E+00  0.00000000E+00
  0.00000000E+00  0.00000000E+00  0.00000000E+00
  0.00000000E+00  0.00000000E+00  0.00000000E+00
  0.00000000E+00  0.00000000E+00  0.00000000E+00
  0.00000000E+00  0.00000000E+00  0.00000000E+00
  0.00000000E+00  0.00000000E+00  0.00000000E+00
  0.00000000E+00  0.00000000E+00  0.00000000E+00