Ni  O 
 1.0000000000000000
    15.1462217587961998    0.0000000000000000    0.0000000000000000
     7.5731108793980804   13.1170128144700993    0.0000000000000000
     0.0000000000000000    0.0000000000000000   37.5999999999999943
 Ni  O  
 252 128
Cartesian
 10.0974811725307561  5.8297834730978018  2.2564001107643650
 12.6218514656634682 10.2021210779211984  2.2564001107643650
  7.5731108793980990  1.4574458682744973  2.2564001107643650
 15.1462217587961927  5.8297834730978018  2.2564001107643650
 17.6705920519289030 10.2021210779211984  2.2564001107643650
 12.6218514656635339  1.4574458682744973  2.2564001107643650
  5.0487405862654278  5.8297834730978018  2.2564001107643650
  7.5731108793981390 10.2021210779211984  2.2564001107643650
  2.5243702931327703  1.4574458682744973  2.2564001107643650
 12.6218514656635250  7.2872293413722984  4.5453919062046939
 15.1462217587961820 11.6595669461956017  4.5453919062046939
 10.0974811725308129  2.9148917365489004  4.5453919062046939
 17.6705920519288533  7.2872293413722984  4.5453919062046939
 20.1949623450615121 11.6595669461956017  4.5453919062046939
 15.1462217587961412  2.9148917365489004  4.5453919062046939
  7.5731108793980884  7.2872293413722984  4.5453919062046939
 10.0974811725307454 11.6595669461956017  4.5453919062046939
  5.0487405862653771  2.9148917365489004  4.5453919062046939
 15.1462217587961323  8.7446752096467026  6.7604392136934273
 10.0974811725307632  0.0000000000000000  6.7604392136934273
 12.6218514656634753  4.3723376048233975  6.7604392136934273
  5.0487405862653691  8.7446752096467026  6.7604392136934273
  0.0000000000000000  0.0000000000000000  6.7604392136934273
  2.5243702931327112  4.3723376048233975  6.7604392136934273
 10.0974811725308040  8.7446752096467026  6.7604392136934273
  5.0487405862654358  0.0000000000000000  6.7604392136934273
  7.5731108793981470  4.3723376048233975  6.7604392136934273
 17.6705920519289030 10.2021210779211984  9.0401890049891946
 12.6218514656635339  1.4574458682744973  9.0401890049891946
 15.1462217587961927  5.8297834730978018  9.0401890049891946
  7.5731108793981390 10.2021210779211984  9.0401890049891946
  2.5243702931327703  1.4574458682744973  9.0401890049891946
  5.0487405862654278  5.8297834730978018  9.0401890049891946
 12.6218514656634682 10.2021210779211984  9.0401890049891946
  7.5731108793980990  1.4574458682744973  9.0401890049891946
 10.0974811725307561  5.8297834730978018  9.0401890049891946
 20.1949623450615121 11.6595669461956017 11.3199387962847560
 15.1462217587961412  2.9148917365489004 11.3199387962847560
 17.6705920519288533  7.2872293413722984 11.3199387962847560
 10.0974811725307454 11.6595669461956017 11.3199387962847560
  5.0487405862653771  2.9148917365489004 11.3199387962847560
  7.5731108793980884  7.2872293413722984 11.3199387962847560
 15.1462217587961820 11.6595669461956017 11.3199387962847560
 10.0974811725308129  2.9148917365489004 11.3199387962847560
 12.6218514656635250  7.2872293413722984 11.3199387962847560
  0.0000000000000000  0.0000000000000000 13.5349861037734911
  2.5243702931327112  4.3723376048233975 13.5349861037734911
  5.0487405862653691  8.7446752096467026 13.5349861037734911
  5.0487405862654358  0.0000000000000000 13.5349861037734911
  7.5731108793981470  4.3723376048233975 13.5349861037734911
 10.0974811725308040  8.7446752096467026 13.5349861037734911
 10.0974811725307632  0.0000000000000000 13.5349861037734911
 12.6218514656634753  4.3723376048233975 13.5349861037734911
 15.1462217587961323  8.7446752096467026 13.5349861037734911
  2.5243702931327703  1.4574458682744973 15.8239778992138227
  5.0487405862654278  5.8297834730978018 15.8239778992138227
  7.5731108793981390 10.2021210779211984 15.8239778992138227
  7.5731108793980990  1.4574458682744973 15.8239778992138227
 10.0974811725307561  5.8297834730978018 15.8239778992138227
 12.6218514656634682 10.2021210779211984 15.8239778992138227
 12.6218514656635339  1.4574458682744973 15.8239778992138227
 15.1462217587961927  5.8297834730978018 15.8239778992138227
 17.6705920519289030 10.2021210779211984 15.8239778992138227
  6.3109257328317625  3.6436146706861496  2.2564001107643650
  8.8352960259644746  8.0159522755095463  2.2564001107643650
 11.3596663190971316 12.3882898803328505  2.2564001107643650
 11.3596663190971991  3.6436146706861496  2.2564001107643650
 13.8840366122299130  8.0159522755095463  2.2564001107643650
 16.4084069053625683 12.3882898803328505  2.2564001107643650
 16.4084069053625257  3.6436146706861496  2.2564001107643650
 18.9327771984952378  8.0159522755095463  2.2564001107643650
 21.4571474916278930 12.3882898803328505  2.2564001107643650
  8.8352960259643698  5.1010605389605521  4.5453919062046939
 11.3596663190970819  9.4733981437839496  4.5453919062046939
  6.3109257328317119  0.7287229341372480  4.5453919062046939
 13.8840366122298065  5.1010605389605521  4.5453919062046939
 16.4084069053625186  9.4733981437839496  4.5453919062046939
 11.3596663190971512  0.7287229341372480  4.5453919062046939
  3.7865554396990415  5.1010605389605521  4.5453919062046939
  6.3109257328317536  9.4733981437839496  4.5453919062046939
  1.2621851465663843  0.7287229341372480  4.5453919062046939
 11.3596663190971423  6.5585064072350487  6.7604392136934273
 13.8840366122298509 10.9308440120584471  6.7604392136934273
  8.8352960259644284  2.1861688024116521  6.7604392136934273
 16.4084069053625754  6.5585064072350487  6.7604392136934273
 18.9327771984952875 10.9308440120584471  6.7604392136934273
 13.8840366122298651  2.1861688024116521  6.7604392136934273
  6.3109257328317039  6.5585064072350487  6.7604392136934273
  8.8352960259644160 10.9308440120584471  6.7604392136934273
  3.7865554396989931  2.1861688024116521  6.7604392136934273
 13.8840366122299130  8.0159522755095463  9.0401890049891946
 16.4084069053625683 12.3882898803328505  9.0401890049891946
 11.3596663190971991  3.6436146706861496  9.0401890049891946
 18.9327771984952378  8.0159522755095463  9.0401890049891946
 21.4571474916278930 12.3882898803328505  9.0401890049891946
 16.4084069053625257  3.6436146706861496  9.0401890049891946
  8.8352960259644746  8.0159522755095463  9.0401890049891946
 11.3596663190971316 12.3882898803328505  9.0401890049891946
  6.3109257328317625  3.6436146706861496  9.0401890049891946
 16.4084069053625186  9.4733981437839496 11.3199387962847560
 11.3596663190971512  0.7287229341372480 11.3199387962847560
 13.8840366122298065  5.1010605389605521 11.3199387962847560
  6.3109257328317536  9.4733981437839496 11.3199387962847560
  1.2621851465663843  0.7287229341372480 11.3199387962847560
  3.7865554396990415  5.1010605389605521 11.3199387962847560
 11.3596663190970819  9.4733981437839496 11.3199387962847560
  6.3109257328317119  0.7287229341372480 11.3199387962847560
  8.8352960259643698  5.1010605389605521 11.3199387962847560
 18.9327771984952875 10.9308440120584471 13.5349861037734911
 13.8840366122298651  2.1861688024116521 13.5349861037734911
 16.4084069053625754  6.5585064072350487 13.5349861037734911
  8.8352960259644160 10.9308440120584471 13.5349861037734911
  3.7865554396989931  2.1861688024116521 13.5349861037734911
  6.3109257328317039  6.5585064072350487 13.5349861037734911
 13.8840366122298509 10.9308440120584471 13.5349861037734911
  8.8352960259644284  2.1861688024116521 13.5349861037734911
 11.3596663190971423  6.5585064072350487 13.5349861037734911
 21.4571474916278930 12.3882898803328505 15.8239778992138227
 16.4084069053625257  3.6436146706861496 15.8239778992138227
 18.9327771984952378  8.0159522755095463 15.8239778992138227
 11.3596663190971316 12.3882898803328505 15.8239778992138227
  6.3109257328317625  3.6436146706861496 15.8239778992138227
  8.8352960259644746  8.0159522755095463 15.8239778992138227
 16.4084069053625683 12.3882898803328505 15.8239778992138227
 11.3596663190971991  3.6436146706861496 15.8239778992138227
 13.8840366122299130  8.0159522755095463 15.8239778992138227
  7.5731108793980937  5.8297834730978018  2.2564001107643650
 10.0974811725308040 10.2021210779211984  2.2564001107643650
  5.0487405862654349  1.4574458682744973  2.2564001107643650
 12.6218514656635286  5.8297834730978018  2.2564001107643650
 15.1462217587962389 10.2021210779211984  2.2564001107643650
 10.0974811725308697  1.4574458682744973  2.2564001107643650
 17.6705920519288533  5.8297834730978018  2.2564001107643650
 20.1949623450615654 10.2021210779211984  2.2564001107643650
 15.1462217587961963  1.4574458682744973  2.2564001107643650
 10.0974811725307525  7.2872293413722984  4.5453919062046939
 12.6218514656634095 11.6595669461956017  4.5453919062046939
  7.5731108793980413  2.9148917365489004  4.5453919062046939
 15.1462217587961891  7.2872293413722984  4.5453919062046939
 17.6705920519288462 11.6595669461956017  4.5453919062046939
 12.6218514656634770  2.9148917365489004  4.5453919062046939
  5.0487405862654242  7.2872293413722984  4.5453919062046939
  7.5731108793980821 11.6595669461956017  4.5453919062046939
  2.5243702931327130  2.9148917365489004  4.5453919062046939
 12.6218514656634664  8.7446752096467026  6.7604392136934273
  7.5731108793980990  0.0000000000000000  6.7604392136934273
 10.0974811725308111  4.3723376048233975  6.7604392136934273
 17.6705920519289030  8.7446752096467026  6.7604392136934273
 12.6218514656635357  0.0000000000000000  6.7604392136934273
 15.1462217587962478  4.3723376048233975  6.7604392136934273
  7.5731108793980333  8.7446752096467026  6.7604392136934273
  2.5243702931326641  0.0000000000000000  6.7604392136934273
  5.0487405862653754  4.3723376048233975  6.7604392136934273
 15.1462217587962389 10.2021210779211984  9.0401890049891946
 10.0974811725308697  1.4574458682744973  9.0401890049891946
 12.6218514656635286  5.8297834730978018  9.0401890049891946
 20.1949623450615654 10.2021210779211984  9.0401890049891946
 15.1462217587961963  1.4574458682744973  9.0401890049891946
 17.6705920519288533  5.8297834730978018  9.0401890049891946
 10.0974811725308040 10.2021210779211984  9.0401890049891946
  5.0487405862654349  1.4574458682744973  9.0401890049891946
  7.5731108793980937  5.8297834730978018  9.0401890049891946
 17.6705920519288462 11.6595669461956017 11.3199387962847560
 12.6218514656634770  2.9148917365489004 11.3199387962847560
 15.1462217587961891  7.2872293413722984 11.3199387962847560
  7.5731108793980821 11.6595669461956017 11.3199387962847560
  2.5243702931327130  2.9148917365489004 11.3199387962847560
  5.0487405862654242  7.2872293413722984 11.3199387962847560
 12.6218514656634095 11.6595669461956017 11.3199387962847560
  7.5731108793980413  2.9148917365489004 11.3199387962847560
 10.0974811725307525  7.2872293413722984 11.3199387962847560
 12.6218514656635357  0.0000000000000000 13.5349861037734911
 15.1462217587962478  4.3723376048233975 13.5349861037734911
 17.6705920519289030  8.7446752096467026 13.5349861037734911
  2.5243702931326641  0.0000000000000000 13.5349861037734911
  5.0487405862653754  4.3723376048233975 13.5349861037734911
  7.5731108793980333  8.7446752096467026 13.5349861037734911
  7.5731108793980990  0.0000000000000000 13.5349861037734911
 10.0974811725308111  4.3723376048233975 13.5349861037734911
 12.6218514656634664  8.7446752096467026 13.5349861037734911
 15.1462217587961963  1.4574458682744973 15.8239778992138227
 17.6705920519288533  5.8297834730978018 15.8239778992138227
 20.1949623450615654 10.2021210779211984 15.8239778992138227
  5.0487405862654349  1.4574458682744973 15.8239778992138227
  7.5731108793980937  5.8297834730978018 15.8239778992138227
 10.0974811725308040 10.2021210779211984 15.8239778992138227
 10.0974811725308697  1.4574458682744973 15.8239778992138227
 12.6218514656635286  5.8297834730978018 15.8239778992138227
 15.1462217587962389 10.2021210779211984 15.8239778992138227
  8.8352960259644284  3.6436146706861496  2.2564001107643650
 11.3596663190971388  8.0159522755095463  2.2564001107643650
 13.8840366122297958 12.3882898803328505  2.2564001107643650
 13.8840366122298633  3.6436146706861496  2.2564001107643650
 16.4084069053625754  8.0159522755095463  2.2564001107643650
 18.9327771984952307 12.3882898803328505  2.2564001107643650
  3.7865554396990992  3.6436146706861496  2.2564001107643650
  6.3109257328318105  8.0159522755095463  2.2564001107643650
  8.8352960259644675 12.3882898803328505  2.2564001107643650
 11.3596663190971423  5.1010605389605521  4.5453919062046939
 13.8840366122298544  9.4733981437839496  4.5453919062046939
  8.8352960259644853  0.7287229341372480  4.5453919062046939
 16.4084069053624688  5.1010605389605521  4.5453919062046939
 18.9327771984951809  9.4733981437839496  4.5453919062046939
 13.8840366122298136  0.7287229341372480  4.5453919062046939
  6.3109257328317057  5.1010605389605521  4.5453919062046939
  8.8352960259644178  9.4733981437839496  4.5453919062046939
  3.7865554396990482  0.7287229341372480  4.5453919062046939
 13.8840366122298029  6.5585064072350487  6.7604392136934273
 16.4084069053625150 10.9308440120584471  6.7604392136934273
 11.3596663190970926  2.1861688024116521  6.7604392136934273
  3.7865554396990397  6.5585064072350487  6.7604392136934273
  6.3109257328317518 10.9308440120584471  6.7604392136934273
  1.2621851465663287  2.1861688024116521  6.7604392136934273
  8.8352960259644764  6.5585064072350487  6.7604392136934273
 11.3596663190971867 10.9308440120584471  6.7604392136934273
  6.3109257328317643  2.1861688024116521  6.7604392136934273
 16.4084069053625754  8.0159522755095463  9.0401890049891946
 18.9327771984952307 12.3882898803328505  9.0401890049891946
 13.8840366122298633  3.6436146706861496  9.0401890049891946
  6.3109257328318105  8.0159522755095463  9.0401890049891946
  8.8352960259644675 12.3882898803328505  9.0401890049891946
  3.7865554396990992  3.6436146706861496  9.0401890049891946
 11.3596663190971388  8.0159522755095463  9.0401890049891946
 13.8840366122297958 12.3882898803328505  9.0401890049891946
  8.8352960259644284  3.6436146706861496  9.0401890049891946
 18.9327771984951809  9.4733981437839496 11.3199387962847560
 13.8840366122298136  0.7287229341372480 11.3199387962847560
 16.4084069053624688  5.1010605389605521 11.3199387962847560
  8.8352960259644178  9.4733981437839496 11.3199387962847560
  3.7865554396990482  0.7287229341372480 11.3199387962847560
  6.3109257328317057  5.1010605389605521 11.3199387962847560
 13.8840366122298544  9.4733981437839496 11.3199387962847560
  8.8352960259644853  0.7287229341372480 11.3199387962847560
 11.3596663190971423  5.1010605389605521 11.3199387962847560
  6.3109257328317518 10.9308440120584471 13.5349861037734911
  1.2621851465663287  2.1861688024116521 13.5349861037734911
  3.7865554396990397  6.5585064072350487 13.5349861037734911
 11.3596663190971867 10.9308440120584471 13.5349861037734911
  6.3109257328317643  2.1861688024116521 13.5349861037734911
  8.8352960259644764  6.5585064072350487 13.5349861037734911
 16.4084069053625150 10.9308440120584471 13.5349861037734911
 11.3596663190970926  2.1861688024116521 13.5349861037734911
 13.8840366122298029  6.5585064072350487 13.5349861037734911
  8.8352960259644675 12.3882898803328505 15.8239778992138227
  3.7865554396990992  3.6436146706861496 15.8239778992138227
  6.3109257328318105  8.0159522755095463 15.8239778992138227
 13.8840366122297958 12.3882898803328505 15.8239778992138227
  8.8352960259644284  3.6436146706861496 15.8239778992138227
 11.3596663190971388  8.0159522755095463 15.8239778992138227
 18.9327771984952307 12.3882898803328505 15.8239778992138227
 13.8840366122298633  3.6436146706861496 15.8239778992138227
 16.4084069053625754  8.0159522755095463 15.8239778992138227
  0.0000000000000000  0.0000000000000000 17.2239778992138213
  0.0000000000000000  0.0000000000000000 18.4239778992138206
  0.9466388599247600  1.6396266018087624 17.2239778992138213
  0.9466388599247600  1.6396266018087624 18.4239778992138206
  1.8932777198495201  3.2792532036175248 17.2239778992138213
  1.8932777198495201  3.2792532036175248 18.4239778992138206
  2.8399165797742802  4.9188798054262870 17.2239778992138213
  2.8399165797742802  4.9188798054262870 18.4239778992138206
  3.7865554396990402  6.5585064072350496 17.2239778992138213
  3.7865554396990402  6.5585064072350496 18.4239778992138206
  4.7331942996238006  8.1981330090438114 17.2239778992138213
  4.7331942996238006  8.1981330090438114 18.4239778992138206
  5.6798331595485605  9.8377596108525740 17.2239778992138213
  5.6798331595485605  9.8377596108525740 18.4239778992138206
  6.6264720194733204 11.4773862126613366 17.2239778992138213
  6.6264720194733204 11.4773862126613366 18.4239778992138206
  1.8932777198495252  0.0000000000000000 17.2239778992138213
  1.8932777198495252  0.0000000000000000 18.4239778992138206
  2.8399165797742851  1.6396266018087624 17.2239778992138213
  2.8399165797742851  1.6396266018087624 18.4239778992138206
  3.7865554396990451  3.2792532036175248 17.2239778992138213
  3.7865554396990451  3.2792532036175248 18.4239778992138206
  4.7331942996238050  4.9188798054262870 17.2239778992138213
  4.7331942996238050  4.9188798054262870 18.4239778992138206
  5.6798331595485649  6.5585064072350496 17.2239778992138213
  5.6798331595485649  6.5585064072350496 18.4239778992138206
  6.6264720194733249  8.1981330090438114 17.2239778992138213
  6.6264720194733249  8.1981330090438114 18.4239778992138206
  7.5731108793980848  9.8377596108525740 17.2239778992138213
  7.5731108793980848  9.8377596108525740 18.4239778992138206
  8.5197497393228439 11.4773862126613366 17.2239778992138213
  8.5197497393228439 11.4773862126613366 18.4239778992138206
  3.7865554396990504  0.0000000000000000 17.2239778992138213
  3.7865554396990504  0.0000000000000000 18.4239778992138206
  4.7331942996238094  1.6396266018087624 17.2239778992138213
  4.7331942996238094  1.6396266018087624 18.4239778992138206
  5.6798331595485703  3.2792532036175248 17.2239778992138213
  5.6798331595485703  3.2792532036175248 18.4239778992138206
  6.6264720194733293  4.9188798054262870 17.2239778992138213
  6.6264720194733293  4.9188798054262870 18.4239778992138206
  7.5731108793980901  6.5585064072350496 17.2239778992138213
  7.5731108793980901  6.5585064072350496 18.4239778992138206
  8.5197497393228492  8.1981330090438114 17.2239778992138213
  8.5197497393228492  8.1981330090438114 18.4239778992138206
  9.4663885992476100  9.8377596108525740 17.2239778992138213
  9.4663885992476100  9.8377596108525740 18.4239778992138206
 10.4130274591723690 11.4773862126613366 17.2239778992138213
 10.4130274591723690 11.4773862126613366 18.4239778992138206
  5.6798331595485747  0.0000000000000000 17.2239778992138213
  5.6798331595485747  0.0000000000000000 18.4239778992138206
  6.6264720194733346  1.6396266018087624 17.2239778992138213
  6.6264720194733346  1.6396266018087624 18.4239778992138206
  7.5731108793980946  3.2792532036175248 17.2239778992138213
  7.5731108793980946  3.2792532036175248 18.4239778992138206
  8.5197497393228545  4.9188798054262870 17.2239778992138213
  8.5197497393228545  4.9188798054262870 18.4239778992138206
  9.4663885992476153  6.5585064072350496 17.2239778992138213
  9.4663885992476153  6.5585064072350496 18.4239778992138206
 10.4130274591723762  8.1981330090438114 17.2239778992138213
 10.4130274591723762  8.1981330090438114 18.4239778992138206
 11.3596663190971352  9.8377596108525740 17.2239778992138213
 11.3596663190971352  9.8377596108525740 18.4239778992138206
 12.3063051790218942 11.4773862126613366 17.2239778992138213
 12.3063051790218942 11.4773862126613366 18.4239778992138206
  7.5731108793980999  0.0000000000000000 17.2239778992138213
  7.5731108793980999  0.0000000000000000 18.4239778992138206
  8.5197497393228598  1.6396266018087624 17.2239778992138213
  8.5197497393228598  1.6396266018087624 18.4239778992138206
  9.4663885992476207  3.2792532036175248 17.2239778992138213
  9.4663885992476207  3.2792532036175248 18.4239778992138206
 10.4130274591723797  4.9188798054262870 17.2239778992138213
 10.4130274591723797  4.9188798054262870 18.4239778992138206
 11.3596663190971405  6.5585064072350496 17.2239778992138213
 11.3596663190971405  6.5585064072350496 18.4239778992138206
 12.3063051790219014  8.1981330090438114 17.2239778992138213
 12.3063051790219014  8.1981330090438114 18.4239778992138206
 13.2529440389466604  9.8377596108525740 17.2239778992138213
 13.2529440389466604  9.8377596108525740 18.4239778992138206
 14.1995828988714194 11.4773862126613366 17.2239778992138213
 14.1995828988714194 11.4773862126613366 18.4239778992138206
  9.4663885992476242  0.0000000000000000 17.2239778992138213
  9.4663885992476242  0.0000000000000000 18.4239778992138206
 10.4130274591723850  1.6396266018087624 17.2239778992138213
 10.4130274591723850  1.6396266018087624 18.4239778992138206
 11.3596663190971441  3.2792532036175248 17.2239778992138213
 11.3596663190971441  3.2792532036175248 18.4239778992138206
 12.3063051790219049  4.9188798054262870 17.2239778992138213
 12.3063051790219049  4.9188798054262870 18.4239778992138206
 13.2529440389466657  6.5585064072350496 17.2239778992138213
 13.2529440389466657  6.5585064072350496 18.4239778992138206
 14.1995828988714248  8.1981330090438114 17.2239778992138213
 14.1995828988714248  8.1981330090438114 18.4239778992138206
 15.1462217587961856  9.8377596108525740 17.2239778992138213
 15.1462217587961856  9.8377596108525740 18.4239778992138206
 16.0928606187209446 11.4773862126613366 17.2239778992138213
 16.0928606187209446 11.4773862126613366 18.4239778992138206
 11.3596663190971494  0.0000000000000000 17.2239778992138213
 11.3596663190971494  0.0000000000000000 18.4239778992138206
 12.3063051790219102  1.6396266018087624 17.2239778992138213
 12.3063051790219102  1.6396266018087624 18.4239778992138206
 13.2529440389466693  3.2792532036175248 17.2239778992138213
 13.2529440389466693  3.2792532036175248 18.4239778992138206
 14.1995828988714301  4.9188798054262870 17.2239778992138213
 14.1995828988714301  4.9188798054262870 18.4239778992138206
 15.1462217587961909  6.5585064072350496 17.2239778992138213
 15.1462217587961909  6.5585064072350496 18.4239778992138206
 16.0928606187209482  8.1981330090438114 17.2239778992138213
 16.0928606187209482  8.1981330090438114 18.4239778992138206
 17.0394994786457090  9.8377596108525740 17.2239778992138213
 17.0394994786457090  9.8377596108525740 18.4239778992138206
 17.9861383385704698 11.4773862126613366 17.2239778992138213
 17.9861383385704698 11.4773862126613366 18.4239778992138206
 13.2529440389466746  0.0000000000000000 17.2239778992138213
 13.2529440389466746  0.0000000000000000 18.4239778992138206
 14.1995828988714354  1.6396266018087624 17.2239778992138213
 14.1995828988714354  1.6396266018087624 18.4239778992138206
 15.1462217587961945  3.2792532036175248 17.2239778992138213
 15.1462217587961945  3.2792532036175248 18.4239778992138206
 16.0928606187209553  4.9188798054262870 17.2239778992138213
 16.0928606187209553  4.9188798054262870 18.4239778992138206
 17.0394994786457161  6.5585064072350496 17.2239778992138213
 17.0394994786457161  6.5585064072350496 18.4239778992138206
 17.9861383385704769  8.1981330090438114 17.2239778992138213
 17.9861383385704769  8.1981330090438114 18.4239778992138206
 18.9327771984952378  9.8377596108525740 17.2239778992138213
 18.9327771984952378  9.8377596108525740 18.4239778992138206
 19.8794160584199950 11.4773862126613366 17.2239778992138213
 19.8794160584199950 11.4773862126613366 18.4239778992138206
