New structure
1.0
    14.28   0.0  0.0
    0.0  14.28   0.0
    0.0  0.0  14.28 
   Ni O
  256 1
Cartesian
 0.0000000000000000        0.0000000000000000        0.0000000000000000
 0.0000000000000000        1.7849999999999999        1.7849999999999999
 1.7849999999999999        0.0000000000000000        1.7849999999999999
 1.7849999999999999        1.7849999999999999        0.0000000000000000
 0.0000000000000000        0.0000000000000000        3.5699999999999998
 0.0000000000000000        1.7849999999999999        5.3549999999999995
 1.7849999999999999        0.0000000000000000        5.3549999999999995
 1.7849999999999999        1.7849999999999999        3.5699999999999998
 0.0000000000000000        0.0000000000000000        7.1399999999999997
 0.0000000000000000        1.7849999999999999        8.9249999999999989
 1.7849999999999999        0.0000000000000000        8.9249999999999989
 1.7849999999999999        1.7849999999999999        7.1399999999999997
 0.0000000000000000        0.0000000000000000        10.709999999999999
 0.0000000000000000        1.7849999999999999        12.494999999999999
 1.7849999999999999        0.0000000000000000        12.494999999999999
 1.7849999999999999        1.7849999999999999        10.709999999999999
 0.0000000000000000        3.5699999999999998        0.0000000000000000
 0.0000000000000000        5.3549999999999995        1.7849999999999999
 1.7849999999999999        3.5699999999999998        1.7849999999999999
 1.7849999999999999        5.3549999999999995        0.0000000000000000
 0.0000000000000000        3.5699999999999998        3.5699999999999998
 0.0000000000000000        5.3549999999999995        5.3549999999999995
 1.7849999999999999        3.5699999999999998        5.3549999999999995
 1.7849999999999999        5.3549999999999995        3.5699999999999998
 0.0000000000000000        3.5699999999999998        7.1399999999999997
 0.0000000000000000        5.3549999999999995        8.9249999999999989
 1.7849999999999999        3.5699999999999998        8.9249999999999989
 1.7849999999999999        5.3549999999999995        7.1399999999999997
 0.0000000000000000        3.5699999999999998        10.709999999999999
 0.0000000000000000        5.3549999999999995        12.494999999999999
 1.7849999999999999        3.5699999999999998        12.494999999999999
 1.7849999999999999        5.3549999999999995        10.709999999999999
 0.0000000000000000        7.1399999999999997        0.0000000000000000
 0.0000000000000000        8.9249999999999989        1.7849999999999999
 1.7849999999999999        7.1399999999999997        1.7849999999999999
 1.7849999999999999        8.9249999999999989        0.0000000000000000
 0.0000000000000000        7.1399999999999997        3.5699999999999998
 0.0000000000000000        8.9249999999999989        5.3549999999999995
 1.7849999999999999        7.1399999999999997        5.3549999999999995
 1.7849999999999999        8.9249999999999989        3.5699999999999998
 0.0000000000000000        7.1399999999999997        7.1399999999999997
 0.0000000000000000        8.9249999999999989        8.9249999999999989
 1.7849999999999999        7.1399999999999997        8.9249999999999989
 1.7849999999999999        8.9249999999999989        7.1399999999999997
 0.0000000000000000        7.1399999999999997        10.709999999999999
 0.0000000000000000        8.9249999999999989        12.494999999999999
 1.7849999999999999        7.1399999999999997        12.494999999999999
 1.7849999999999999        8.9249999999999989        10.709999999999999
 0.0000000000000000        10.709999999999999        0.0000000000000000
 0.0000000000000000        12.494999999999999        1.7849999999999999
 1.7849999999999999        10.709999999999999        1.7849999999999999
 1.7849999999999999        12.494999999999999        0.0000000000000000
 0.0000000000000000        10.709999999999999        3.5699999999999998
 0.0000000000000000        12.494999999999999        5.3549999999999995
 1.7849999999999999        10.709999999999999        5.3549999999999995
 1.7849999999999999        12.494999999999999        3.5699999999999998
 0.0000000000000000        10.709999999999999        7.1399999999999997
 0.0000000000000000        12.494999999999999        8.9249999999999989
 1.7849999999999999        10.709999999999999        8.9249999999999989
 1.7849999999999999        12.494999999999999        7.1399999999999997
 0.0000000000000000        10.709999999999999        10.709999999999999
 0.0000000000000000        12.494999999999999        12.494999999999999
 1.7849999999999999        10.709999999999999        12.494999999999999
 1.7849999999999999        12.494999999999999        10.709999999999999
 3.5699999999999998        0.0000000000000000        0.0000000000000000
 3.5699999999999998        1.7849999999999999        1.7849999999999999
 5.3549999999999995        0.0000000000000000        1.7849999999999999
 5.3549999999999995        1.7849999999999999        0.0000000000000000
 3.5699999999999998        0.0000000000000000        3.5699999999999998
 3.5699999999999998        1.7849999999999999        5.3549999999999995
 5.3549999999999995        0.0000000000000000        5.3549999999999995
 5.3549999999999995        1.7849999999999999        3.5699999999999998
 3.5699999999999998        0.0000000000000000        7.1399999999999997
 3.5699999999999998        1.7849999999999999        8.9249999999999989
 5.3549999999999995        0.0000000000000000        8.9249999999999989
 5.3549999999999995        1.7849999999999999        7.1399999999999997
 3.5699999999999998        0.0000000000000000        10.709999999999999
 3.5699999999999998        1.7849999999999999        12.494999999999999
 5.3549999999999995        0.0000000000000000        12.494999999999999
 5.3549999999999995        1.7849999999999999        10.709999999999999
 3.5699999999999998        3.5699999999999998        0.0000000000000000
 3.5699999999999998        5.3549999999999995        1.7849999999999999
 5.3549999999999995        3.5699999999999998        1.7849999999999999
 5.3549999999999995        5.3549999999999995        0.0000000000000000
 3.5699999999999998        3.5699999999999998        3.5699999999999998
 3.5699999999999998        5.3549999999999995        5.3549999999999995
 5.3549999999999995        3.5699999999999998        5.3549999999999995
 5.3549999999999995        5.3549999999999995        3.5699999999999998
 3.5699999999999998        3.5699999999999998        7.1399999999999997
 3.5699999999999998        5.3549999999999995        8.9249999999999989
 5.3549999999999995        3.5699999999999998        8.9249999999999989
 5.3549999999999995        5.3549999999999995        7.1399999999999997
 3.5699999999999998        3.5699999999999998        10.709999999999999
 3.5699999999999998        5.3549999999999995        12.494999999999999
 5.3549999999999995        3.5699999999999998        12.494999999999999
 5.3549999999999995        5.3549999999999995        10.709999999999999
 3.5699999999999998        7.1399999999999997        0.0000000000000000
 3.5699999999999998        8.9249999999999989        1.7849999999999999
 5.3549999999999995        7.1399999999999997        1.7849999999999999
 5.3549999999999995        8.9249999999999989        0.0000000000000000
 3.5699999999999998        7.1399999999999997        3.5699999999999998
 3.5699999999999998        8.9249999999999989        5.3549999999999995
 5.3549999999999995        7.1399999999999997        5.3549999999999995
 5.3549999999999995        8.9249999999999989        3.5699999999999998
 3.5699999999999998        7.1399999999999997        7.1399999999999997
 3.5699999999999998        8.9249999999999989        8.9249999999999989
 5.3549999999999995        7.1399999999999997        8.9249999999999989
 5.3549999999999995        8.9249999999999989        7.1399999999999997
 3.5699999999999998        7.1399999999999997        10.709999999999999
 3.5699999999999998        8.9249999999999989        12.494999999999999
 5.3549999999999995        7.1399999999999997        12.494999999999999
 5.3549999999999995        8.9249999999999989        10.709999999999999
 3.5699999999999998        10.709999999999999        0.0000000000000000
 3.5699999999999998        12.494999999999999        1.7849999999999999
 5.3549999999999995        10.709999999999999        1.7849999999999999
 5.3549999999999995        12.494999999999999        0.0000000000000000
 3.5699999999999998        10.709999999999999        3.5699999999999998
 3.5699999999999998        12.494999999999999        5.3549999999999995
 5.3549999999999995        10.709999999999999        5.3549999999999995
 5.3549999999999995        12.494999999999999        3.5699999999999998
 3.5699999999999998        10.709999999999999        7.1399999999999997
 3.5699999999999998        12.494999999999999        8.9249999999999989
 5.3549999999999995        10.709999999999999        8.9249999999999989
 5.3549999999999995        12.494999999999999        7.1399999999999997
 3.5699999999999998        10.709999999999999        10.709999999999999
 3.5699999999999998        12.494999999999999        12.494999999999999
 5.3549999999999995        10.709999999999999        12.494999999999999
 5.3549999999999995        12.494999999999999        10.709999999999999
 7.1399999999999997        0.0000000000000000        0.0000000000000000
 7.1399999999999997        1.7849999999999999        1.7849999999999999
 8.9249999999999989        0.0000000000000000        1.7849999999999999
 8.9249999999999989        1.7849999999999999        0.0000000000000000
 7.1399999999999997        0.0000000000000000        3.5699999999999998
 7.1399999999999997        1.7849999999999999        5.3549999999999995
 8.9249999999999989        0.0000000000000000        5.3549999999999995
 8.9249999999999989        1.7849999999999999        3.5699999999999998
 7.1399999999999997        0.0000000000000000        7.1399999999999997
 7.1399999999999997        1.7849999999999999        8.9249999999999989
 8.9249999999999989        0.0000000000000000        8.9249999999999989
 8.9249999999999989        1.7849999999999999        7.1399999999999997
 7.1399999999999997        0.0000000000000000        10.709999999999999
 7.1399999999999997        1.7849999999999999        12.494999999999999
 8.9249999999999989        0.0000000000000000        12.494999999999999
 8.9249999999999989        1.7849999999999999        10.709999999999999
 7.1399999999999997        3.5699999999999998        0.0000000000000000
 7.1399999999999997        5.3549999999999995        1.7849999999999999
 8.9249999999999989        3.5699999999999998        1.7849999999999999
 8.9249999999999989        5.3549999999999995        0.0000000000000000
 7.1399999999999997        3.5699999999999998        3.5699999999999998
 7.1399999999999997        5.3549999999999995        5.3549999999999995
 8.9249999999999989        3.5699999999999998        5.3549999999999995
 8.9249999999999989        5.3549999999999995        3.5699999999999998
 7.1399999999999997        3.5699999999999998        7.1399999999999997
 7.1399999999999997        5.3549999999999995        8.9249999999999989
 8.9249999999999989        3.5699999999999998        8.9249999999999989
 8.9249999999999989        5.3549999999999995        7.1399999999999997
 7.1399999999999997        3.5699999999999998        10.709999999999999
 7.1399999999999997        5.3549999999999995        12.494999999999999
 8.9249999999999989        3.5699999999999998        12.494999999999999
 8.9249999999999989        5.3549999999999995        10.709999999999999
 7.1399999999999997        7.1399999999999997        0.0000000000000000
 7.1399999999999997        8.9249999999999989        1.7849999999999999
 8.9249999999999989        7.1399999999999997        1.7849999999999999
 8.9249999999999989        8.9249999999999989        0.0000000000000000
 7.1399999999999997        7.1399999999999997        3.5699999999999998
 7.1399999999999997        8.9249999999999989        5.3549999999999995
 8.9249999999999989        7.1399999999999997        5.3549999999999995
 8.9249999999999989        8.9249999999999989        3.5699999999999998
 7.1399999999999997        7.1399999999999997        7.1399999999999997
 7.1399999999999997        8.9249999999999989        8.9249999999999989
 8.9249999999999989        7.1399999999999997        8.9249999999999989
 8.9249999999999989        8.9249999999999989        7.1399999999999997
 7.1399999999999997        7.1399999999999997        10.709999999999999
 7.1399999999999997        8.9249999999999989        12.494999999999999
 8.9249999999999989        7.1399999999999997        12.494999999999999
 8.9249999999999989        8.9249999999999989        10.709999999999999
 7.1399999999999997        10.709999999999999        0.0000000000000000
 7.1399999999999997        12.494999999999999        1.7849999999999999
 8.9249999999999989        10.709999999999999        1.7849999999999999
 8.9249999999999989        12.494999999999999        0.0000000000000000
 7.1399999999999997        10.709999999999999        3.5699999999999998
 7.1399999999999997        12.494999999999999        5.3549999999999995
 8.9249999999999989        10.709999999999999        5.3549999999999995
 8.9249999999999989        12.494999999999999        3.5699999999999998
 7.1399999999999997        10.709999999999999        7.1399999999999997
 7.1399999999999997        12.494999999999999        8.9249999999999989
 8.9249999999999989        10.709999999999999        8.9249999999999989
 8.9249999999999989        12.494999999999999        7.1399999999999997
 7.1399999999999997        10.709999999999999        10.709999999999999
 7.1399999999999997        12.494999999999999        12.494999999999999
 8.9249999999999989        10.709999999999999        12.494999999999999
 8.9249999999999989        12.494999999999999        10.709999999999999
 10.709999999999999        0.0000000000000000        0.0000000000000000
 10.709999999999999        1.7849999999999999        1.7849999999999999
 12.494999999999999        0.0000000000000000        1.7849999999999999
 12.494999999999999        1.7849999999999999        0.0000000000000000
 10.709999999999999        0.0000000000000000        3.5699999999999998
 10.709999999999999        1.7849999999999999        5.3549999999999995
 12.494999999999999        0.0000000000000000        5.3549999999999995
 12.494999999999999        1.7849999999999999        3.5699999999999998
 10.709999999999999        0.0000000000000000        7.1399999999999997
 10.709999999999999        1.7849999999999999        8.9249999999999989
 12.494999999999999        0.0000000000000000        8.9249999999999989
 12.494999999999999        1.7849999999999999        7.1399999999999997
 10.709999999999999        0.0000000000000000        10.709999999999999
 10.709999999999999        1.7849999999999999        12.494999999999999
 12.494999999999999        0.0000000000000000        12.494999999999999
 12.494999999999999        1.7849999999999999        10.709999999999999
 10.709999999999999        3.5699999999999998        0.0000000000000000
 10.709999999999999        5.3549999999999995        1.7849999999999999
 12.494999999999999        3.5699999999999998        1.7849999999999999
 12.494999999999999        5.3549999999999995        0.0000000000000000
 10.709999999999999        3.5699999999999998        3.5699999999999998
 10.709999999999999        5.3549999999999995        5.3549999999999995
 12.494999999999999        3.5699999999999998        5.3549999999999995
 12.494999999999999        5.3549999999999995        3.5699999999999998
 10.709999999999999        3.5699999999999998        7.1399999999999997
 10.709999999999999        5.3549999999999995        8.9249999999999989
 12.494999999999999        3.5699999999999998        8.9249999999999989
 12.494999999999999        5.3549999999999995        7.1399999999999997
 10.709999999999999        3.5699999999999998        10.709999999999999
 10.709999999999999        5.3549999999999995        12.494999999999999
 12.494999999999999        3.5699999999999998        12.494999999999999
 12.494999999999999        5.3549999999999995        10.709999999999999
 10.709999999999999        7.1399999999999997        0.0000000000000000
 10.709999999999999        8.9249999999999989        1.7849999999999999
 12.494999999999999        7.1399999999999997        1.7849999999999999
 12.494999999999999        8.9249999999999989        0.0000000000000000
 10.709999999999999        7.1399999999999997        3.5699999999999998
 10.709999999999999        8.9249999999999989        5.3549999999999995
 12.494999999999999        7.1399999999999997        5.3549999999999995
 12.494999999999999        8.9249999999999989        3.5699999999999998
 10.709999999999999        7.1399999999999997        7.1399999999999997
 10.709999999999999        8.9249999999999989        8.9249999999999989
 12.494999999999999        7.1399999999999997        8.9249999999999989
 12.494999999999999        8.9249999999999989        7.1399999999999997
 10.709999999999999        7.1399999999999997        10.709999999999999
 10.709999999999999        8.9249999999999989        12.494999999999999
 12.494999999999999        7.1399999999999997        12.494999999999999
 12.494999999999999        8.9249999999999989        10.709999999999999
 10.709999999999999        10.709999999999999        0.0000000000000000
 10.709999999999999        12.494999999999999        1.7849999999999999
 12.494999999999999        10.709999999999999        1.7849999999999999
 12.494999999999999        12.494999999999999        0.0000000000000000
 10.709999999999999        10.709999999999999        3.5699999999999998
 10.709999999999999        12.494999999999999        5.3549999999999995
 12.494999999999999        10.709999999999999        5.3549999999999995
 12.494999999999999        12.494999999999999        3.5699999999999998
 10.709999999999999        10.709999999999999        7.1399999999999997
 10.709999999999999        12.494999999999999        8.9249999999999989
 12.494999999999999        10.709999999999999        8.9249999999999989
 12.494999999999999        12.494999999999999        7.1399999999999997
 10.709999999999999        10.709999999999999        10.709999999999999
 10.709999999999999        12.494999999999999        12.494999999999999
 12.494999999999999        10.709999999999999        12.494999999999999
 12.494999999999999        12.494999999999999        10.709999999999999
 0.8925 0.8925 0.8925
