New structure                           
    1.000000000000000     
     0.0000000000000000  -15.1462217587961998    0.0000000000000000
     0.0000000000000000   -7.5731108793980804  -13.1170128144700993
    29.0000000000000000    0.0000000000000000    0.0000000000000000
   Ni
   252
Direct
  0.4444444444444429  0.4444444444444429  0.1083702048735957
  0.4444444444444429  0.7777777777777786  0.1083702048735957
  0.4444444444444429  0.1111111111111143  0.1083702048735957
  0.7777777777777786  0.4444444444444429  0.1083702048735957
  0.7777777777777786  0.7777777777777786  0.1083702048735957
  0.7777777777777786  0.1111111111111143  0.1083702048735957
  0.1111111111111143  0.4444444444444429  0.1083702048735957
  0.1111111111111143  0.7777777777777786  0.1083702048735957
  0.1111111111111143  0.1111111111111143  0.1083702048735957
  0.5555555555555571  0.5555555555555571  0.1764058060506771
  0.5555555555555571  0.8888888888888857  0.1764058060506771
  0.5555555555555571  0.2222222222222214  0.1764058060506771
  0.8888888888888857  0.5555555555555571  0.1764058060506771
  0.8888888888888857  0.8888888888888857  0.1764058060506771
  0.8888888888888857  0.2222222222222214  0.1764058060506771
  0.2222222222222214  0.5555555555555571  0.1764058060506771
  0.2222222222222214  0.8888888888888857  0.1764058060506771
  0.2222222222222214  0.2222222222222214  0.1764058060506771
  0.6666666666666643  0.6666666666666643  0.2440916034538090
  0.6666666666666643 -0.0000000000000000  0.2440916034538090
  0.6666666666666643  0.3333333333333357  0.2440916034538090
  0.0000000000000000  0.6666666666666643  0.2440916034538090
  0.0000000000000000 -0.0000000000000000  0.2440916034538090
  0.0000000000000000  0.3333333333333357  0.2440916034538090
  0.3333333333333357  0.6666666666666643  0.2440916034538090
  0.3333333333333357  0.0000000000000000  0.2440916034538090
  0.3333333333333357  0.3333333333333357  0.2440916034538090
  0.7777777777777786  0.7777777777777786  0.3117306553444550
  0.7777777777777786  0.1111111111111143  0.3117306553444550
  0.7777777777777786  0.4444444444444429  0.3117306553444550
  0.1111111111111143  0.7777777777777786  0.3117306553444550
  0.1111111111111143  0.1111111111111143  0.3117306553444550
  0.1111111111111143  0.4444444444444429  0.3117306553444550
  0.4444444444444429  0.7777777777777786  0.3117306553444550
  0.4444444444444429  0.1111111111111143  0.3117306553444550
  0.4444444444444429  0.4444444444444429  0.3117306553444550
  0.8888888888888857  0.8888888888888857  0.3793697072350938
  0.8888888888888857  0.2222222222222214  0.3793697072350938
  0.8888888888888857  0.5555555555555571  0.3793697072350938
  0.2222222222222214  0.8888888888888857  0.3793697072350938
  0.2222222222222214  0.2222222222222214  0.3793697072350938
  0.2222222222222214  0.5555555555555571  0.3793697072350938
  0.5555555555555571  0.8888888888888857  0.3793697072350938
  0.5555555555555571  0.2222222222222214  0.3793697072350938
  0.5555555555555571  0.5555555555555571  0.3793697072350938
  0.0000000000000000  0.0000000000000000  0.4470555046382257
  0.0000000000000000  0.3333333333333357  0.4470555046382257
 -0.0000000000000000  0.6666666666666643  0.4470555046382257
  0.3333333333333357  0.0000000000000000  0.4470555046382257
  0.3333333333333357  0.3333333333333357  0.4470555046382257
  0.3333333333333357  0.6666666666666643  0.4470555046382257
  0.6666666666666643  0.0000000000000000  0.4470555046382257
  0.6666666666666643  0.3333333333333357  0.4470555046382257
  0.6666666666666643  0.6666666666666643  0.4470555046382257
  0.1111111111111143  0.1111111111111143  0.5150911058153070
  0.1111111111111143  0.4444444444444429  0.5150911058153070
  0.1111111111111143  0.7777777777777786  0.5150911058153070
  0.4444444444444429  0.1111111111111143  0.5150911058153070
  0.4444444444444429  0.4444444444444429  0.5150911058153070
  0.4444444444444429  0.7777777777777786  0.5150911058153070
  0.7777777777777786  0.1111111111111143  0.5150911058153070
  0.7777777777777786  0.4444444444444429  0.5150911058153070
  0.7777777777777786  0.7777777777777786  0.5150911058153070
  0.2777777777777786  0.2777777777777786  0.1083702048735957
  0.2777777777777786  0.6111111111111143  0.1083702048735957
  0.2777777777777786  0.9444444444444429  0.1083702048735957
  0.6111111111111143  0.2777777777777786  0.1083702048735957
  0.6111111111111143  0.6111111111111143  0.1083702048735957
  0.6111111111111143  0.9444444444444429  0.1083702048735957
  0.9444444444444429  0.2777777777777786  0.1083702048735957
  0.9444444444444429  0.6111111111111143  0.1083702048735957
  0.9444444444444429  0.9444444444444429  0.1083702048735957
  0.3888888888888857  0.3888888888888857  0.1764058060506771
  0.3888888888888857  0.7222222222222214  0.1764058060506771
  0.3888888888888857  0.0555555555555571  0.1764058060506771
  0.7222222222222214  0.3888888888888857  0.1764058060506771
  0.7222222222222214  0.7222222222222214  0.1764058060506771
  0.7222222222222214  0.0555555555555571  0.1764058060506771
  0.0555555555555571  0.3888888888888857  0.1764058060506771
  0.0555555555555571  0.7222222222222214  0.1764058060506771
  0.0555555555555571  0.0555555555555571  0.1764058060506771
  0.5000000000000000  0.5000000000000000  0.2440916034538090
  0.5000000000000000  0.8333333333333357  0.2440916034538090
  0.5000000000000000  0.1666666666666643  0.2440916034538090
  0.8333333333333357  0.5000000000000000  0.2440916034538090
  0.8333333333333357  0.8333333333333357  0.2440916034538090
  0.8333333333333357  0.1666666666666643  0.2440916034538090
  0.1666666666666643  0.5000000000000000  0.2440916034538090
  0.1666666666666643  0.8333333333333357  0.2440916034538090
  0.1666666666666643  0.1666666666666643  0.2440916034538090
  0.6111111111111143  0.6111111111111143  0.3117306553444550
  0.6111111111111143  0.9444444444444429  0.3117306553444550
  0.6111111111111143  0.2777777777777786  0.3117306553444550
  0.9444444444444429  0.6111111111111143  0.3117306553444550
  0.9444444444444429  0.9444444444444429  0.3117306553444550
  0.9444444444444429  0.2777777777777786  0.3117306553444550
  0.2777777777777786  0.6111111111111143  0.3117306553444550
  0.2777777777777786  0.9444444444444429  0.3117306553444550
  0.2777777777777786  0.2777777777777786  0.3117306553444550
  0.7222222222222214  0.7222222222222214  0.3793697072350938
  0.7222222222222214  0.0555555555555571  0.3793697072350938
  0.7222222222222214  0.3888888888888857  0.3793697072350938
  0.0555555555555571  0.7222222222222214  0.3793697072350938
  0.0555555555555571  0.0555555555555571  0.3793697072350938
  0.0555555555555571  0.3888888888888857  0.3793697072350938
  0.3888888888888857  0.7222222222222214  0.3793697072350938
  0.3888888888888857  0.0555555555555571  0.3793697072350938
  0.3888888888888857  0.3888888888888857  0.3793697072350938
  0.8333333333333357  0.8333333333333357  0.4470555046382257
  0.8333333333333357  0.1666666666666643  0.4470555046382257
  0.8333333333333357  0.5000000000000000  0.4470555046382257
  0.1666666666666643  0.8333333333333357  0.4470555046382257
  0.1666666666666643  0.1666666666666643  0.4470555046382257
  0.1666666666666643  0.5000000000000000  0.4470555046382257
  0.5000000000000000  0.8333333333333357  0.4470555046382257
  0.5000000000000000  0.1666666666666643  0.4470555046382257
  0.5000000000000000  0.5000000000000000  0.4470555046382257
  0.9444444444444429  0.9444444444444429  0.5150911058153070
  0.9444444444444429  0.2777777777777786  0.5150911058153070
  0.9444444444444429  0.6111111111111143  0.5150911058153070
  0.2777777777777786  0.9444444444444429  0.5150911058153070
  0.2777777777777786  0.2777777777777786  0.5150911058153070
  0.2777777777777786  0.6111111111111143  0.5150911058153070
  0.6111111111111143  0.9444444444444429  0.5150911058153070
  0.6111111111111143  0.2777777777777786  0.5150911058153070
  0.6111111111111143  0.6111111111111143  0.5150911058153070
  0.2777777777777786  0.4444444444444429  0.1083702048735957
  0.2777777777777786  0.7777777777777786  0.1083702048735957
  0.2777777777777786  0.1111111111111143  0.1083702048735957
  0.6111111111111143  0.4444444444444429  0.1083702048735957
  0.6111111111111143  0.7777777777777786  0.1083702048735957
  0.6111111111111143  0.1111111111111143  0.1083702048735957
  0.9444444444444429  0.4444444444444429  0.1083702048735957
  0.9444444444444429  0.7777777777777786  0.1083702048735957
  0.9444444444444429  0.1111111111111143  0.1083702048735957
  0.3888888888888857  0.5555555555555571  0.1764058060506771
  0.3888888888888857  0.8888888888888857  0.1764058060506771
  0.3888888888888857  0.2222222222222214  0.1764058060506771
  0.7222222222222214  0.5555555555555571  0.1764058060506771
  0.7222222222222214  0.8888888888888857  0.1764058060506771
  0.7222222222222214  0.2222222222222214  0.1764058060506771
  0.0555555555555571  0.5555555555555571  0.1764058060506771
  0.0555555555555571  0.8888888888888857  0.1764058060506771
  0.0555555555555571  0.2222222222222214  0.1764058060506771
  0.5000000000000000  0.6666666666666643  0.2440916034538090
  0.5000000000000000 -0.0000000000000000  0.2440916034538090
  0.5000000000000000  0.3333333333333357  0.2440916034538090
  0.8333333333333357  0.6666666666666643  0.2440916034538090
  0.8333333333333357  0.0000000000000000  0.2440916034538090
  0.8333333333333357  0.3333333333333357  0.2440916034538090
  0.1666666666666643  0.6666666666666643  0.2440916034538090
  0.1666666666666643 -0.0000000000000000  0.2440916034538090
  0.1666666666666643  0.3333333333333357  0.2440916034538090
  0.6111111111111143  0.7777777777777786  0.3117306553444550
  0.6111111111111143  0.1111111111111143  0.3117306553444550
  0.6111111111111143  0.4444444444444429  0.3117306553444550
  0.9444444444444429  0.7777777777777786  0.3117306553444550
  0.9444444444444429  0.1111111111111143  0.3117306553444550
  0.9444444444444429  0.4444444444444429  0.3117306553444550
  0.2777777777777786  0.7777777777777786  0.3117306553444550
  0.2777777777777786  0.1111111111111143  0.3117306553444550
  0.2777777777777786  0.4444444444444429  0.3117306553444550
  0.7222222222222214  0.8888888888888857  0.3793697072350938
  0.7222222222222214  0.2222222222222214  0.3793697072350938
  0.7222222222222214  0.5555555555555571  0.3793697072350938
  0.0555555555555571  0.8888888888888857  0.3793697072350938
  0.0555555555555571  0.2222222222222214  0.3793697072350938
  0.0555555555555571  0.5555555555555571  0.3793697072350938
  0.3888888888888857  0.8888888888888857  0.3793697072350938
  0.3888888888888857  0.2222222222222214  0.3793697072350938
  0.3888888888888857  0.5555555555555571  0.3793697072350938
  0.8333333333333357  0.0000000000000000  0.4470555046382257
  0.8333333333333357  0.3333333333333357  0.4470555046382257
  0.8333333333333357  0.6666666666666643  0.4470555046382257
  0.1666666666666643  0.0000000000000000  0.4470555046382257
  0.1666666666666643  0.3333333333333357  0.4470555046382257
  0.1666666666666643  0.6666666666666643  0.4470555046382257
  0.5000000000000000  0.0000000000000000  0.4470555046382257
  0.5000000000000000  0.3333333333333357  0.4470555046382257
  0.5000000000000000  0.6666666666666643  0.4470555046382257
  0.9444444444444429  0.1111111111111143  0.5150911058153070
  0.9444444444444429  0.4444444444444429  0.5150911058153070
  0.9444444444444429  0.7777777777777786  0.5150911058153070
  0.2777777777777786  0.1111111111111143  0.5150911058153070
  0.2777777777777786  0.4444444444444429  0.5150911058153070
  0.2777777777777786  0.7777777777777786  0.5150911058153070
  0.6111111111111143  0.1111111111111143  0.5150911058153070
  0.6111111111111143  0.4444444444444429  0.5150911058153070
  0.6111111111111143  0.7777777777777786  0.5150911058153070
  0.4444444444444429  0.2777777777777786  0.1083702048735957
  0.4444444444444429  0.6111111111111143  0.1083702048735957
  0.4444444444444429  0.9444444444444429  0.1083702048735957
  0.7777777777777786  0.2777777777777786  0.1083702048735957
  0.7777777777777786  0.6111111111111143  0.1083702048735957
  0.7777777777777786  0.9444444444444429  0.1083702048735957
  0.1111111111111143  0.2777777777777786  0.1083702048735957
  0.1111111111111143  0.6111111111111143  0.1083702048735957
  0.1111111111111143  0.9444444444444429  0.1083702048735957
  0.5555555555555571  0.3888888888888857  0.1764058060506771
  0.5555555555555571  0.7222222222222214  0.1764058060506771
  0.5555555555555571  0.0555555555555571  0.1764058060506771
  0.8888888888888857  0.3888888888888857  0.1764058060506771
  0.8888888888888857  0.7222222222222214  0.1764058060506771
  0.8888888888888857  0.0555555555555571  0.1764058060506771
  0.2222222222222214  0.3888888888888857  0.1764058060506771
  0.2222222222222214  0.7222222222222214  0.1764058060506771
  0.2222222222222214  0.0555555555555571  0.1764058060506771
  0.6666666666666643  0.5000000000000000  0.2440916034538090
  0.6666666666666643  0.8333333333333357  0.2440916034538090
  0.6666666666666643  0.1666666666666643  0.2440916034538090
 -0.0000000000000000  0.5000000000000000  0.2440916034538090
  0.0000000000000000  0.8333333333333357  0.2440916034538090
 -0.0000000000000000  0.1666666666666643  0.2440916034538090
  0.3333333333333357  0.5000000000000000  0.2440916034538090
  0.3333333333333357  0.8333333333333357  0.2440916034538090
  0.3333333333333357  0.1666666666666643  0.2440916034538090
  0.7777777777777786  0.6111111111111143  0.3117306553444550
  0.7777777777777786  0.9444444444444429  0.3117306553444550
  0.7777777777777786  0.2777777777777786  0.3117306553444550
  0.1111111111111143  0.6111111111111143  0.3117306553444550
  0.1111111111111143  0.9444444444444429  0.3117306553444550
  0.1111111111111143  0.2777777777777786  0.3117306553444550
  0.4444444444444429  0.6111111111111143  0.3117306553444550
  0.4444444444444429  0.9444444444444429  0.3117306553444550
  0.4444444444444429  0.2777777777777786  0.3117306553444550
  0.8888888888888857  0.7222222222222214  0.3793697072350938
  0.8888888888888857  0.0555555555555571  0.3793697072350938
  0.8888888888888857  0.3888888888888857  0.3793697072350938
  0.2222222222222214  0.7222222222222214  0.3793697072350938
  0.2222222222222214  0.0555555555555571  0.3793697072350938
  0.2222222222222214  0.3888888888888857  0.3793697072350938
  0.5555555555555571  0.7222222222222214  0.3793697072350938
  0.5555555555555571  0.0555555555555571  0.3793697072350938
  0.5555555555555571  0.3888888888888857  0.3793697072350938
  0.0000000000000000  0.8333333333333357  0.4470555046382257
  0.0000000000000000  0.1666666666666643  0.4470555046382257
  0.0000000000000000  0.5000000000000000  0.4470555046382257
  0.3333333333333357  0.8333333333333357  0.4470555046382257
  0.3333333333333357  0.1666666666666643  0.4470555046382257
  0.3333333333333357  0.5000000000000000  0.4470555046382257
  0.6666666666666643  0.8333333333333357  0.4470555046382257
  0.6666666666666643  0.1666666666666643  0.4470555046382257
  0.6666666666666643  0.5000000000000000  0.4470555046382257
  0.1111111111111143  0.9444444444444429  0.5150911058153070
  0.1111111111111143  0.2777777777777786  0.5150911058153070
  0.1111111111111143  0.6111111111111143  0.5150911058153070
  0.4444444444444429  0.9444444444444429  0.5150911058153070
  0.4444444444444429  0.2777777777777786  0.5150911058153070
  0.4444444444444429  0.6111111111111143  0.5150911058153070
  0.7777777777777786  0.9444444444444429  0.5150911058153070
  0.7777777777777786  0.2777777777777786  0.5150911058153070
  0.7777777777777786  0.6111111111111143  0.5150911058153070
 
  0.00000000E+00  0.00000000E+00  0.00000000E+00
  0.00000000E+00  0.00000000E+00  0.00000000E+00
  0.00000000E+00  0.00000000E+00  0.00000000E+00
  0.00000000E+00  0.00000000E+00  0.00000000E+00
  0.00000000E+00  0.00000000E+00  0.00000000E+00
  0.00000000E+00  0.00000000E+00  0.00000000E+00
  0.00000000E+00  0.00000000E+00  0.00000000E+00
  0.00000000E+00  0.00000000E+00  0.00000000E+00
  0.00000000E+00  0.00000000E+00  0.00000000E+00
  0.00000000E+00  0.00000000E+00  0.00000000E+00
  0.00000000E+00  0.00000000E+00  0.00000000E+00
  0.00000000E+00  0.00000000E+00  0.00000000E+00
  0.00000000E+00  0.00000000E+00  0.00000000E+00
  0.00000000E+00  0.00000000E+00  0.00000000E+00
  0.00000000E+00  0.00000000E+00  0.00000000E+00
  0.00000000E+00  0.00000000E+00  0.00000000E+00
  0.00000000E+00  0.00000000E+00  0.00000000E+00
  0.00000000E+00  0.00000000E+00  0.00000000E+00
  0.00000000E+00  0.00000000E+00  0.00000000E+00
  0.00000000E+00  0.00000000E+00  0.00000000E+00
  0.00000000E+00  0.00000000E+00  0.00000000E+00
  0.00000000E+00  0.00000000E+00  0.00000000E+00
  0.00000000E+00  0.00000000E+00  0.00000000E+00
  0.00000000E+00  0.00000000E+00  0.00000000E+00
  0.00000000E+00  0.00000000E+00  0.00000000E+00
  0.00000000E+00  0.00000000E+00  0.00000000E+00
  0.00000000E+00  0.00000000E+00  0.00000000E+00
  0.00000000E+00  0.00000000E+00  0.00000000E+00
  0.00000000E+00  0.00000000E+00  0.00000000E+00
  0.00000000E+00  0.00000000E+00  0.00000000E+00
  0.00000000E+00  0.00000000E+00  0.00000000E+00
  0.00000000E+00  0.00000000E+00  0.00000000E+00
  0.00000000E+00  0.00000000E+00  0.00000000E+00
  0.00000000E+00  0.00000000E+00  0.00000000E+00
  0.00000000E+00  0.00000000E+00  0.00000000E+00
  0.00000000E+00  0.00000000E+00  0.00000000E+00
  0.00000000E+00  0.00000000E+00  0.00000000E+00
  0.00000000E+00  0.00000000E+00  0.00000000E+00
  0.00000000E+00  0.00000000E+00  0.00000000E+00
  0.00000000E+00  0.00000000E+00  0.00000000E+00
  0.00000000E+00  0.00000000E+00  0.00000000E+00
  0.00000000E+00  0.00000000E+00  0.00000000E+00
  0.00000000E+00  0.00000000E+00  0.00000000E+00
  0.00000000E+00  0.00000000E+00  0.00000000E+00
  0.00000000E+00  0.00000000E+00  0.00000000E+00
  0.00000000E+00  0.00000000E+00  0.00000000E+00
  0.00000000E+00  0.00000000E+00  0.00000000E+00
  0.00000000E+00  0.00000000E+00  0.00000000E+00
  0.00000000E+00  0.00000000E+00  0.00000000E+00
  0.00000000E+00  0.00000000E+00  0.00000000E+00
  0.00000000E+00  0.00000000E+00  0.00000000E+00
  0.00000000E+00  0.00000000E+00  0.00000000E+00
  0.00000000E+00  0.00000000E+00  0.00000000E+00
  0.00000000E+00  0.00000000E+00  0.00000000E+00
  0.00000000E+00  0.00000000E+00  0.00000000E+00
  0.00000000E+00  0.00000000E+00  0.00000000E+00
  0.00000000E+00  0.00000000E+00  0.00000000E+00
  0.00000000E+00  0.00000000E+00  0.00000000E+00
  0.00000000E+00  0.00000000E+00  0.00000000E+00
  0.00000000E+00  0.00000000E+00  0.00000000E+00
  0.00000000E+00  0.00000000E+00  0.00000000E+00
  0.00000000E+00  0.00000000E+00  0.00000000E+00
  0.00000000E+00  0.00000000E+00  0.00000000E+00
  0.00000000E+00  0.00000000E+00  0.00000000E+00
  0.00000000E+00  0.00000000E+00  0.00000000E+00
  0.00000000E+00  0.00000000E+00  0.00000000E+00
  0.00000000E+00  0.00000000E+00  0.00000000E+00
  0.00000000E+00  0.00000000E+00  0.00000000E+00
  0.00000000E+00  0.00000000E+00  0.00000000E+00
  0.00000000E+00  0.00000000E+00  0.00000000E+00
  0.00000000E+00  0.00000000E+00  0.00000000E+00
  0.00000000E+00  0.00000000E+00  0.00000000E+00
  0.00000000E+00  0.00000000E+00  0.00000000E+00
  0.00000000E+00  0.00000000E+00  0.00000000E+00
  0.00000000E+00  0.00000000E+00  0.00000000E+00
  0.00000000E+00  0.00000000E+00  0.00000000E+00
  0.00000000E+00  0.00000000E+00  0.00000000E+00
  0.00000000E+00  0.00000000E+00  0.00000000E+00
  0.00000000E+00  0.00000000E+00  0.00000000E+00
  0.00000000E+00  0.00000000E+00  0.00000000E+00
  0.00000000E+00  0.00000000E+00  0.00000000E+00
  0.00000000E+00  0.00000000E+00  0.00000000E+00
  0.00000000E+00  0.00000000E+00  0.00000000E+00
  0.00000000E+00  0.00000000E+00  0.00000000E+00
  0.00000000E+00  0.00000000E+00  0.00000000E+00
  0.00000000E+00  0.00000000E+00  0.00000000E+00
  0.00000000E+00  0.00000000E+00  0.00000000E+00
  0.00000000E+00  0.00000000E+00  0.00000000E+00
  0.00000000E+00  0.00000000E+00  0.00000000E+00
  0.00000000E+00  0.00000000E+00  0.00000000E+00
  0.00000000E+00  0.00000000E+00  0.00000000E+00
  0.00000000E+00  0.00000000E+00  0.00000000E+00
  0.00000000E+00  0.00000000E+00  0.00000000E+00
  0.00000000E+00  0.00000000E+00  0.00000000E+00
  0.00000000E+00  0.00000000E+00  0.00000000E+00
  0.00000000E+00  0.00000000E+00  0.00000000E+00
  0.00000000E+00  0.00000000E+00  0.00000000E+00
  0.00000000E+00  0.00000000E+00  0.00000000E+00
  0.00000000E+00  0.00000000E+00  0.00000000E+00
  0.00000000E+00  0.00000000E+00  0.00000000E+00
  0.00000000E+00  0.00000000E+00  0.00000000E+00
  0.00000000E+00  0.00000000E+00  0.00000000E+00
  0.00000000E+00  0.00000000E+00  0.00000000E+00
  0.00000000E+00  0.00000000E+00  0.00000000E+00
  0.00000000E+00  0.00000000E+00  0.00000000E+00
  0.00000000E+00  0.00000000E+00  0.00000000E+00
  0.00000000E+00  0.00000000E+00  0.00000000E+00
  0.00000000E+00  0.00000000E+00  0.00000000E+00
  0.00000000E+00  0.00000000E+00  0.00000000E+00
  0.00000000E+00  0.00000000E+00  0.00000000E+00
  0.00000000E+00  0.00000000E+00  0.00000000E+00
  0.00000000E+00  0.00000000E+00  0.00000000E+00
  0.00000000E+00  0.00000000E+00  0.00000000E+00
  0.00000000E+00  0.00000000E+00  0.00000000E+00
  0.00000000E+00  0.00000000E+00  0.00000000E+00
  0.00000000E+00  0.00000000E+00  0.00000000E+00
  0.00000000E+00  0.00000000E+00  0.00000000E+00
  0.00000000E+00  0.00000000E+00  0.00000000E+00
  0.00000000E+00  0.00000000E+00  0.00000000E+00
  0.00000000E+00  0.00000000E+00  0.00000000E+00
  0.00000000E+00  0.00000000E+00  0.00000000E+00
  0.00000000E+00  0.00000000E+00  0.00000000E+00
  0.00000000E+00  0.00000000E+00  0.00000000E+00
  0.00000000E+00  0.00000000E+00  0.00000000E+00
  0.00000000E+00  0.00000000E+00  0.00000000E+00
  0.00000000E+00  0.00000000E+00  0.00000000E+00
  0.00000000E+00  0.00000000E+00  0.00000000E+00
  0.00000000E+00  0.00000000E+00  0.00000000E+00
  0.00000000E+00  0.00000000E+00  0.00000000E+00
  0.00000000E+00  0.00000000E+00  0.00000000E+00
  0.00000000E+00  0.00000000E+00  0.00000000E+00
  0.00000000E+00  0.00000000E+00  0.00000000E+00
  0.00000000E+00  0.00000000E+00  0.00000000E+00
  0.00000000E+00  0.00000000E+00  0.00000000E+00
  0.00000000E+00  0.00000000E+00  0.00000000E+00
  0.00000000E+00  0.00000000E+00  0.00000000E+00
  0.00000000E+00  0.00000000E+00  0.00000000E+00
  0.00000000E+00  0.00000000E+00  0.00000000E+00
  0.00000000E+00  0.00000000E+00  0.00000000E+00
  0.00000000E+00  0.00000000E+00  0.00000000E+00
  0.00000000E+00  0.00000000E+00  0.00000000E+00
  0.00000000E+00  0.00000000E+00  0.00000000E+00
  0.00000000E+00  0.00000000E+00  0.00000000E+00
  0.00000000E+00  0.00000000E+00  0.00000000E+00
  0.00000000E+00  0.00000000E+00  0.00000000E+00
  0.00000000E+00  0.00000000E+00  0.00000000E+00
  0.00000000E+00  0.00000000E+00  0.00000000E+00
  0.00000000E+00  0.00000000E+00  0.00000000E+00
  0.00000000E+00  0.00000000E+00  0.00000000E+00
  0.00000000E+00  0.00000000E+00  0.00000000E+00
  0.00000000E+00  0.00000000E+00  0.00000000E+00
  0.00000000E+00  0.00000000E+00  0.00000000E+00
  0.00000000E+00  0.00000000E+00  0.00000000E+00
  0.00000000E+00  0.00000000E+00  0.00000000E+00
  0.00000000E+00  0.00000000E+00  0.00000000E+00
  0.00000000E+00  0.00000000E+00  0.00000000E+00
  0.00000000E+00  0.00000000E+00  0.00000000E+00
  0.00000000E+00  0.00000000E+00  0.00000000E+00
  0.00000000E+00  0.00000000E+00  0.00000000E+00
  0.00000000E+00  0.00000000E+00  0.00000000E+00
  0.00000000E+00  0.00000000E+00  0.00000000E+00
  0.00000000E+00  0.00000000E+00  0.00000000E+00
  0.00000000E+00  0.00000000E+00  0.00000000E+00
  0.00000000E+00  0.00000000E+00  0.00000000E+00
  0.00000000E+00  0.00000000E+00  0.00000000E+00
  0.00000000E+00  0.00000000E+00  0.00000000E+00
  0.00000000E+00  0.00000000E+00  0.00000000E+00
  0.00000000E+00  0.00000000E+00  0.00000000E+00
  0.00000000E+00  0.00000000E+00  0.00000000E+00
  0.00000000E+00  0.00000000E+00  0.00000000E+00
  0.00000000E+00  0.00000000E+00  0.00000000E+00
  0.00000000E+00  0.00000000E+00  0.00000000E+00
  0.00000000E+00  0.00000000E+00  0.00000000E+00
  0.00000000E+00  0.00000000E+00  0.00000000E+00
  0.00000000E+00  0.00000000E+00  0.00000000E+00
  0.00000000E+00  0.00000000E+00  0.00000000E+00
  0.00000000E+00  0.00000000E+00  0.00000000E+00
  0.00000000E+00  0.00000000E+00  0.00000000E+00
  0.00000000E+00  0.00000000E+00  0.00000000E+00
  0.00000000E+00  0.00000000E+00  0.00000000E+00
  0.00000000E+00  0.00000000E+00  0.00000000E+00
  0.00000000E+00  0.00000000E+00  0.00000000E+00
  0.00000000E+00  0.00000000E+00  0.00000000E+00
  0.00000000E+00  0.00000000E+00  0.00000000E+00
  0.00000000E+00  0.00000000E+00  0.00000000E+00
  0.00000000E+00  0.00000000E+00  0.00000000E+00
  0.00000000E+00  0.00000000E+00  0.00000000E+00
  0.00000000E+00  0.00000000E+00  0.00000000E+00
  0.00000000E+00  0.00000000E+00  0.00000000E+00
  0.00000000E+00  0.00000000E+00  0.00000000E+00
  0.00000000E+00  0.00000000E+00  0.00000000E+00
  0.00000000E+00  0.00000000E+00  0.00000000E+00
  0.00000000E+00  0.00000000E+00  0.00000000E+00
  0.00000000E+00  0.00000000E+00  0.00000000E+00
  0.00000000E+00  0.00000000E+00  0.00000000E+00
  0.00000000E+00  0.00000000E+00  0.00000000E+00
  0.00000000E+00  0.00000000E+00  0.00000000E+00
  0.00000000E+00  0.00000000E+00  0.00000000E+00
  0.00000000E+00  0.00000000E+00  0.00000000E+00
  0.00000000E+00  0.00000000E+00  0.00000000E+00
  0.00000000E+00  0.00000000E+00  0.00000000E+00
  0.00000000E+00  0.00000000E+00  0.00000000E+00
  0.00000000E+00  0.00000000E+00  0.00000000E+00
  0.00000000E+00  0.00000000E+00  0.00000000E+00
  0.00000000E+00  0.00000000E+00  0.00000000E+00
  0.00000000E+00  0.00000000E+00  0.00000000E+00
  0.00000000E+00  0.00000000E+00  0.00000000E+00
  0.00000000E+00  0.00000000E+00  0.00000000E+00
  0.00000000E+00  0.00000000E+00  0.00000000E+00
  0.00000000E+00  0.00000000E+00  0.00000000E+00
  0.00000000E+00  0.00000000E+00  0.00000000E+00
  0.00000000E+00  0.00000000E+00  0.00000000E+00
  0.00000000E+00  0.00000000E+00  0.00000000E+00
  0.00000000E+00  0.00000000E+00  0.00000000E+00
  0.00000000E+00  0.00000000E+00  0.00000000E+00
  0.00000000E+00  0.00000000E+00  0.00000000E+00
  0.00000000E+00  0.00000000E+00  0.00000000E+00
  0.00000000E+00  0.00000000E+00  0.00000000E+00
  0.00000000E+00  0.00000000E+00  0.00000000E+00
  0.00000000E+00  0.00000000E+00  0.00000000E+00
  0.00000000E+00  0.00000000E+00  0.00000000E+00
  0.00000000E+00  0.00000000E+00  0.00000000E+00
  0.00000000E+00  0.00000000E+00  0.00000000E+00
  0.00000000E+00  0.00000000E+00  0.00000000E+00
  0.00000000E+00  0.00000000E+00  0.00000000E+00
  0.00000000E+00  0.00000000E+00  0.00000000E+00
  0.00000000E+00  0.00000000E+00  0.00000000E+00
  0.00000000E+00  0.00000000E+00  0.00000000E+00
  0.00000000E+00  0.00000000E+00  0.00000000E+00
  0.00000000E+00  0.00000000E+00  0.00000000E+00
  0.00000000E+00  0.00000000E+00  0.00000000E+00
  0.00000000E+00  0.00000000E+00  0.00000000E+00
  0.00000000E+00  0.00000000E+00  0.00000000E+00
  0.00000000E+00  0.00000000E+00  0.00000000E+00
  0.00000000E+00  0.00000000E+00  0.00000000E+00
  0.00000000E+00  0.00000000E+00  0.00000000E+00
  0.00000000E+00  0.00000000E+00  0.00000000E+00
  0.00000000E+00  0.00000000E+00  0.00000000E+00
  0.00000000E+00  0.00000000E+00  0.00000000E+00
  0.00000000E+00  0.00000000E+00  0.00000000E+00
  0.00000000E+00  0.00000000E+00  0.00000000E+00
  0.00000000E+00  0.00000000E+00  0.00000000E+00
  0.00000000E+00  0.00000000E+00  0.00000000E+00
  0.00000000E+00  0.00000000E+00  0.00000000E+00
  0.00000000E+00  0.00000000E+00  0.00000000E+00
  0.00000000E+00  0.00000000E+00  0.00000000E+00
  0.00000000E+00  0.00000000E+00  0.00000000E+00
  0.00000000E+00  0.00000000E+00  0.00000000E+00
  0.00000000E+00  0.00000000E+00  0.00000000E+00
  0.00000000E+00  0.00000000E+00  0.00000000E+00
  0.00000000E+00  0.00000000E+00  0.00000000E+00
  0.00000000E+00  0.00000000E+00  0.00000000E+00
