New structure                           
   1.00000000000000     
0 -15.1462217587962 0
0 -7.57311087939808 -13.1170128144701
29 0 0
   Ni
   252
Direct
  0.4444444444444429  0.4444444444444429  0.0778069003711850
  0.4444444444444429  0.7777777777777786  0.0778069003711850
  0.4444444444444429  0.1111111111111143  0.0778069003711850
  0.7777777777777786  0.4444444444444429  0.0778069003711850
  0.7777777777777786  0.7777777777777786  0.0778069003711850
  0.7777777777777786  0.1111111111111143  0.0778069003711850
  0.1111111111111143  0.4444444444444429  0.0778069003711850
  0.1111111111111143  0.7777777777777786  0.0778069003711850
  0.1111111111111143  0.1111111111111143  0.0778069003711850
  0.5555555555555571  0.5555555555555571  0.1567376519380929
  0.5555555555555571  0.8888888888888857  0.1567376519380929
  0.5555555555555571  0.2222222222222214  0.1567376519380929
  0.8888888888888857  0.5555555555555571  0.1567376519380929
  0.8888888888888857  0.8888888888888857  0.1567376519380929
  0.8888888888888857  0.2222222222222214  0.1567376519380929
  0.2222222222222214  0.5555555555555571  0.1567376519380929
  0.2222222222222214  0.8888888888888857  0.1567376519380929
  0.2222222222222214  0.2222222222222214  0.1567376519380929
  0.6666666666666643  0.6666666666666643  0.2331185935756354
  0.6666666666666643 -0.0000000000000000  0.2331185935756354
  0.6666666666666643  0.3333333333333357  0.2331185935756354
 -0.0000000000000000  0.6666666666666643  0.2331185935756354
 -0.0000000000000000 -0.0000000000000000  0.2331185935756354
 -0.0000000000000000  0.3333333333333357  0.2331185935756354
  0.3333333333333357  0.6666666666666643  0.2331185935756354
  0.3333333333333357 -0.0000000000000000  0.2331185935756354
  0.3333333333333357  0.3333333333333357  0.2331185935756354
  0.7777777777777786  0.7777777777777786  0.3117306553444550
  0.7777777777777786  0.1111111111111143  0.3117306553444550
  0.7777777777777786  0.4444444444444429  0.3117306553444550
  0.1111111111111143  0.7777777777777786  0.3117306553444550
  0.1111111111111143  0.1111111111111143  0.3117306553444550
  0.1111111111111143  0.4444444444444429  0.3117306553444550
  0.4444444444444429  0.7777777777777786  0.3117306553444550
  0.4444444444444429  0.1111111111111143  0.3117306553444550
  0.4444444444444429  0.4444444444444429  0.3117306553444550
  0.8888888888888857  0.8888888888888857  0.3903427171132675
  0.8888888888888857  0.2222222222222214  0.3903427171132675
  0.8888888888888857  0.5555555555555571  0.3903427171132675
  0.2222222222222214  0.8888888888888857  0.3903427171132675
  0.2222222222222214  0.2222222222222214  0.3903427171132675
  0.2222222222222214  0.5555555555555571  0.3903427171132675
  0.5555555555555571  0.8888888888888857  0.3903427171132675
  0.5555555555555571  0.2222222222222214  0.3903427171132675
  0.5555555555555571  0.5555555555555571  0.3903427171132675
  0.0000000000000000 -0.0000000000000000  0.4667236587508100
 -0.0000000000000000  0.3333333333333357  0.4667236587508100
  0.0000000000000000  0.6666666666666643  0.4667236587508100
  0.3333333333333357 -0.0000000000000000  0.4667236587508100
  0.3333333333333357  0.3333333333333357  0.4667236587508100
  0.3333333333333357  0.6666666666666643  0.4667236587508100
  0.6666666666666643 -0.0000000000000000  0.4667236587508100
  0.6666666666666643  0.3333333333333357  0.4667236587508100
  0.6666666666666643  0.6666666666666643  0.4667236587508100
  0.1111111111111143  0.1111111111111143  0.5456544103177180
  0.1111111111111143  0.4444444444444429  0.5456544103177180
  0.1111111111111143  0.7777777777777786  0.5456544103177180
  0.4444444444444429  0.1111111111111143  0.5456544103177180
  0.4444444444444429  0.4444444444444429  0.5456544103177180
  0.4444444444444429  0.7777777777777786  0.5456544103177180
  0.7777777777777786  0.1111111111111143  0.5456544103177180
  0.7777777777777786  0.4444444444444429  0.5456544103177180
  0.7777777777777786  0.7777777777777786  0.5456544103177180
  0.2777777777777786  0.2777777777777786  0.0778069003711850
  0.2777777777777786  0.6111111111111143  0.0778069003711850
  0.2777777777777786  0.9444444444444429  0.0778069003711850
  0.6111111111111143  0.2777777777777786  0.0778069003711850
  0.6111111111111143  0.6111111111111143  0.0778069003711850
  0.6111111111111143  0.9444444444444429  0.0778069003711850
  0.9444444444444429  0.2777777777777786  0.0778069003711850
  0.9444444444444429  0.6111111111111143  0.0778069003711850
  0.9444444444444429  0.9444444444444429  0.0778069003711850
  0.3888888888888857  0.3888888888888857  0.1567376519380929
  0.3888888888888857  0.7222222222222214  0.1567376519380929
  0.3888888888888857  0.0555555555555571  0.1567376519380929
  0.7222222222222214  0.3888888888888857  0.1567376519380929
  0.7222222222222214  0.7222222222222214  0.1567376519380929
  0.7222222222222214  0.0555555555555571  0.1567376519380929
  0.0555555555555571  0.3888888888888857  0.1567376519380929
  0.0555555555555571  0.7222222222222214  0.1567376519380929
  0.0555555555555571  0.0555555555555571  0.1567376519380929
  0.5000000000000000  0.5000000000000000  0.2331185935756354
  0.5000000000000000  0.8333333333333357  0.2331185935756354
  0.5000000000000000  0.1666666666666643  0.2331185935756354
  0.8333333333333357  0.5000000000000000  0.2331185935756354
  0.8333333333333357  0.8333333333333357  0.2331185935756354
  0.8333333333333357  0.1666666666666643  0.2331185935756354
  0.1666666666666643  0.5000000000000000  0.2331185935756354
  0.1666666666666643  0.8333333333333357  0.2331185935756354
  0.1666666666666643  0.1666666666666643  0.2331185935756354
  0.6111111111111143  0.6111111111111143  0.3117306553444550
  0.6111111111111143  0.9444444444444429  0.3117306553444550
  0.6111111111111143  0.2777777777777786  0.3117306553444550
  0.9444444444444429  0.6111111111111143  0.3117306553444550
  0.9444444444444429  0.9444444444444429  0.3117306553444550
  0.9444444444444429  0.2777777777777786  0.3117306553444550
  0.2777777777777786  0.6111111111111143  0.3117306553444550
  0.2777777777777786  0.9444444444444429  0.3117306553444550
  0.2777777777777786  0.2777777777777786  0.3117306553444550
  0.7222222222222214  0.7222222222222214  0.3903427171132675
  0.7222222222222214  0.0555555555555571  0.3903427171132675
  0.7222222222222214  0.3888888888888857  0.3903427171132675
  0.0555555555555571  0.7222222222222214  0.3903427171132675
  0.0555555555555571  0.0555555555555571  0.3903427171132675
  0.0555555555555571  0.3888888888888857  0.3903427171132675
  0.3888888888888857  0.7222222222222214  0.3903427171132675
  0.3888888888888857  0.0555555555555571  0.3903427171132675
  0.3888888888888857  0.3888888888888857  0.3903427171132675
  0.8333333333333357  0.8333333333333357  0.4667236587508100
  0.8333333333333357  0.1666666666666643  0.4667236587508100
  0.8333333333333357  0.5000000000000000  0.4667236587508100
  0.1666666666666643  0.8333333333333357  0.4667236587508100
  0.1666666666666643  0.1666666666666643  0.4667236587508100
  0.1666666666666643  0.5000000000000000  0.4667236587508100
  0.5000000000000000  0.8333333333333357  0.4667236587508100
  0.5000000000000000  0.1666666666666643  0.4667236587508100
  0.5000000000000000  0.5000000000000000  0.4667236587508100
  0.9444444444444429  0.9444444444444429  0.5456544103177180
  0.9444444444444429  0.2777777777777786  0.5456544103177180
  0.9444444444444429  0.6111111111111143  0.5456544103177180
  0.2777777777777786  0.9444444444444429  0.5456544103177180
  0.2777777777777786  0.2777777777777786  0.5456544103177180
  0.2777777777777786  0.6111111111111143  0.5456544103177180
  0.6111111111111143  0.9444444444444429  0.5456544103177180
  0.6111111111111143  0.2777777777777786  0.5456544103177180
  0.6111111111111143  0.6111111111111143  0.5456544103177180
  0.2777777777777786  0.4444444444444429  0.0778069003711850
  0.2777777777777786  0.7777777777777786  0.0778069003711850
  0.2777777777777786  0.1111111111111143  0.0778069003711850
  0.6111111111111143  0.4444444444444429  0.0778069003711850
  0.6111111111111143  0.7777777777777786  0.0778069003711850
  0.6111111111111143  0.1111111111111143  0.0778069003711850
  0.9444444444444429  0.4444444444444429  0.0778069003711850
  0.9444444444444429  0.7777777777777786  0.0778069003711850
  0.9444444444444429  0.1111111111111143  0.0778069003711850
  0.3888888888888857  0.5555555555555571  0.1567376519380929
  0.3888888888888857  0.8888888888888857  0.1567376519380929
  0.3888888888888857  0.2222222222222214  0.1567376519380929
  0.7222222222222214  0.5555555555555571  0.1567376519380929
  0.7222222222222214  0.8888888888888857  0.1567376519380929
  0.7222222222222214  0.2222222222222214  0.1567376519380929
  0.0555555555555571  0.5555555555555571  0.1567376519380929
  0.0555555555555571  0.8888888888888857  0.1567376519380929
  0.0555555555555571  0.2222222222222214  0.1567376519380929
  0.5000000000000000  0.6666666666666643  0.2331185935756354
  0.5000000000000000 -0.0000000000000000  0.2331185935756354
  0.5000000000000000  0.3333333333333357  0.2331185935756354
  0.8333333333333357  0.6666666666666643  0.2331185935756354
  0.8333333333333357 -0.0000000000000000  0.2331185935756354
  0.8333333333333357  0.3333333333333357  0.2331185935756354
  0.1666666666666643  0.6666666666666643  0.2331185935756354
  0.1666666666666643 -0.0000000000000000  0.2331185935756354
  0.1666666666666643  0.3333333333333357  0.2331185935756354
  0.6111111111111143  0.7777777777777786  0.3117306553444550
  0.6111111111111143  0.1111111111111143  0.3117306553444550
  0.6111111111111143  0.4444444444444429  0.3117306553444550
  0.9444444444444429  0.7777777777777786  0.3117306553444550
  0.9444444444444429  0.1111111111111143  0.3117306553444550
  0.9444444444444429  0.4444444444444429  0.3117306553444550
  0.2777777777777786  0.7777777777777786  0.3117306553444550
  0.2777777777777786  0.1111111111111143  0.3117306553444550
  0.2777777777777786  0.4444444444444429  0.3117306553444550
  0.7222222222222214  0.8888888888888857  0.3903427171132675
  0.7222222222222214  0.2222222222222214  0.3903427171132675
  0.7222222222222214  0.5555555555555571  0.3903427171132675
  0.0555555555555571  0.8888888888888857  0.3903427171132675
  0.0555555555555571  0.2222222222222214  0.3903427171132675
  0.0555555555555571  0.5555555555555571  0.3903427171132675
  0.3888888888888857  0.8888888888888857  0.3903427171132675
  0.3888888888888857  0.2222222222222214  0.3903427171132675
  0.3888888888888857  0.5555555555555571  0.3903427171132675
  0.8333333333333357 -0.0000000000000000  0.4667236587508100
  0.8333333333333357  0.3333333333333357  0.4667236587508100
  0.8333333333333357  0.6666666666666643  0.4667236587508100
  0.1666666666666643 -0.0000000000000000  0.4667236587508100
  0.1666666666666643  0.3333333333333357  0.4667236587508100
  0.1666666666666643  0.6666666666666643  0.4667236587508100
  0.5000000000000000 -0.0000000000000000  0.4667236587508100
  0.5000000000000000  0.3333333333333357  0.4667236587508100
  0.5000000000000000  0.6666666666666643  0.4667236587508100
  0.9444444444444429  0.1111111111111143  0.5456544103177180
  0.9444444444444429  0.4444444444444429  0.5456544103177180
  0.9444444444444429  0.7777777777777786  0.5456544103177180
  0.2777777777777786  0.1111111111111143  0.5456544103177180
  0.2777777777777786  0.4444444444444429  0.5456544103177180
  0.2777777777777786  0.7777777777777786  0.5456544103177180
  0.6111111111111143  0.1111111111111143  0.5456544103177180
  0.6111111111111143  0.4444444444444429  0.5456544103177180
  0.6111111111111143  0.7777777777777786  0.5456544103177180
  0.4444444444444429  0.2777777777777786  0.0778069003711850
  0.4444444444444429  0.6111111111111143  0.0778069003711850
  0.4444444444444429  0.9444444444444429  0.0778069003711850
  0.7777777777777786  0.2777777777777786  0.0778069003711850
  0.7777777777777786  0.6111111111111143  0.0778069003711850
  0.7777777777777786  0.9444444444444429  0.0778069003711850
  0.1111111111111143  0.2777777777777786  0.0778069003711850
  0.1111111111111143  0.6111111111111143  0.0778069003711850
  0.1111111111111143  0.9444444444444429  0.0778069003711850
  0.5555555555555571  0.3888888888888857  0.1567376519380929
  0.5555555555555571  0.7222222222222214  0.1567376519380929
  0.5555555555555571  0.0555555555555571  0.1567376519380929
  0.8888888888888857  0.3888888888888857  0.1567376519380929
  0.8888888888888857  0.7222222222222214  0.1567376519380929
  0.8888888888888857  0.0555555555555571  0.1567376519380929
  0.2222222222222214  0.3888888888888857  0.1567376519380929
  0.2222222222222214  0.7222222222222214  0.1567376519380929
  0.2222222222222214  0.0555555555555571  0.1567376519380929
  0.6666666666666643  0.5000000000000000  0.2331185935756354
  0.6666666666666643  0.8333333333333357  0.2331185935756354
  0.6666666666666643  0.1666666666666643  0.2331185935756354
  0.0000000000000000  0.5000000000000000  0.2331185935756354
 -0.0000000000000000  0.8333333333333357  0.2331185935756354
  0.0000000000000000  0.1666666666666643  0.2331185935756354
  0.3333333333333357  0.5000000000000000  0.2331185935756354
  0.3333333333333357  0.8333333333333357  0.2331185935756354
  0.3333333333333357  0.1666666666666643  0.2331185935756354
  0.7777777777777786  0.6111111111111143  0.3117306553444550
  0.7777777777777786  0.9444444444444429  0.3117306553444550
  0.7777777777777786  0.2777777777777786  0.3117306553444550
  0.1111111111111143  0.6111111111111143  0.3117306553444550
  0.1111111111111143  0.9444444444444429  0.3117306553444550
  0.1111111111111143  0.2777777777777786  0.3117306553444550
  0.4444444444444429  0.6111111111111143  0.3117306553444550
  0.4444444444444429  0.9444444444444429  0.3117306553444550
  0.4444444444444429  0.2777777777777786  0.3117306553444550
  0.8888888888888857  0.7222222222222214  0.3903427171132675
  0.8888888888888857  0.0555555555555571  0.3903427171132675
  0.8888888888888857  0.3888888888888857  0.3903427171132675
  0.2222222222222214  0.7222222222222214  0.3903427171132675
  0.2222222222222214  0.0555555555555571  0.3903427171132675
  0.2222222222222214  0.3888888888888857  0.3903427171132675
  0.5555555555555571  0.7222222222222214  0.3903427171132675
  0.5555555555555571  0.0555555555555571  0.3903427171132675
  0.5555555555555571  0.3888888888888857  0.3903427171132675
  0.0000000000000000  0.8333333333333357  0.4667236587508100
  0.0000000000000000  0.1666666666666643  0.4667236587508100
 -0.0000000000000000  0.5000000000000000  0.4667236587508100
  0.3333333333333357  0.8333333333333357  0.4667236587508100
  0.3333333333333357  0.1666666666666643  0.4667236587508100
  0.3333333333333357  0.5000000000000000  0.4667236587508100
  0.6666666666666643  0.8333333333333357  0.4667236587508100
  0.6666666666666643  0.1666666666666643  0.4667236587508100
  0.6666666666666643  0.5000000000000000  0.4667236587508100
  0.1111111111111143  0.9444444444444429  0.5456544103177180
  0.1111111111111143  0.2777777777777786  0.5456544103177180
  0.1111111111111143  0.6111111111111143  0.5456544103177180
  0.4444444444444429  0.9444444444444429  0.5456544103177180
  0.4444444444444429  0.2777777777777786  0.5456544103177180
  0.4444444444444429  0.6111111111111143  0.5456544103177180
  0.7777777777777786  0.9444444444444429  0.5456544103177180
  0.7777777777777786  0.2777777777777786  0.5456544103177180
  0.7777777777777786  0.6111111111111143  0.5456544103177180
 
  0.00000000E+00  0.00000000E+00  0.00000000E+00
  0.00000000E+00  0.00000000E+00  0.00000000E+00
  0.00000000E+00  0.00000000E+00  0.00000000E+00
  0.00000000E+00  0.00000000E+00  0.00000000E+00
  0.00000000E+00  0.00000000E+00  0.00000000E+00
  0.00000000E+00  0.00000000E+00  0.00000000E+00
  0.00000000E+00  0.00000000E+00  0.00000000E+00
  0.00000000E+00  0.00000000E+00  0.00000000E+00
  0.00000000E+00  0.00000000E+00  0.00000000E+00
  0.00000000E+00  0.00000000E+00  0.00000000E+00
  0.00000000E+00  0.00000000E+00  0.00000000E+00
  0.00000000E+00  0.00000000E+00  0.00000000E+00
  0.00000000E+00  0.00000000E+00  0.00000000E+00
  0.00000000E+00  0.00000000E+00  0.00000000E+00
  0.00000000E+00  0.00000000E+00  0.00000000E+00
  0.00000000E+00  0.00000000E+00  0.00000000E+00
  0.00000000E+00  0.00000000E+00  0.00000000E+00
  0.00000000E+00  0.00000000E+00  0.00000000E+00
  0.00000000E+00  0.00000000E+00  0.00000000E+00
  0.00000000E+00  0.00000000E+00  0.00000000E+00
  0.00000000E+00  0.00000000E+00  0.00000000E+00
  0.00000000E+00  0.00000000E+00  0.00000000E+00
  0.00000000E+00  0.00000000E+00  0.00000000E+00
  0.00000000E+00  0.00000000E+00  0.00000000E+00
  0.00000000E+00  0.00000000E+00  0.00000000E+00
  0.00000000E+00  0.00000000E+00  0.00000000E+00
  0.00000000E+00  0.00000000E+00  0.00000000E+00
  0.00000000E+00  0.00000000E+00  0.00000000E+00
  0.00000000E+00  0.00000000E+00  0.00000000E+00
  0.00000000E+00  0.00000000E+00  0.00000000E+00
  0.00000000E+00  0.00000000E+00  0.00000000E+00
  0.00000000E+00  0.00000000E+00  0.00000000E+00
  0.00000000E+00  0.00000000E+00  0.00000000E+00
  0.00000000E+00  0.00000000E+00  0.00000000E+00
  0.00000000E+00  0.00000000E+00  0.00000000E+00
  0.00000000E+00  0.00000000E+00  0.00000000E+00
  0.00000000E+00  0.00000000E+00  0.00000000E+00
  0.00000000E+00  0.00000000E+00  0.00000000E+00
  0.00000000E+00  0.00000000E+00  0.00000000E+00
  0.00000000E+00  0.00000000E+00  0.00000000E+00
  0.00000000E+00  0.00000000E+00  0.00000000E+00
  0.00000000E+00  0.00000000E+00  0.00000000E+00
  0.00000000E+00  0.00000000E+00  0.00000000E+00
  0.00000000E+00  0.00000000E+00  0.00000000E+00
  0.00000000E+00  0.00000000E+00  0.00000000E+00
  0.00000000E+00  0.00000000E+00  0.00000000E+00
  0.00000000E+00  0.00000000E+00  0.00000000E+00
  0.00000000E+00  0.00000000E+00  0.00000000E+00
  0.00000000E+00  0.00000000E+00  0.00000000E+00
  0.00000000E+00  0.00000000E+00  0.00000000E+00
  0.00000000E+00  0.00000000E+00  0.00000000E+00
  0.00000000E+00  0.00000000E+00  0.00000000E+00
  0.00000000E+00  0.00000000E+00  0.00000000E+00
  0.00000000E+00  0.00000000E+00  0.00000000E+00
  0.00000000E+00  0.00000000E+00  0.00000000E+00
  0.00000000E+00  0.00000000E+00  0.00000000E+00
  0.00000000E+00  0.00000000E+00  0.00000000E+00
  0.00000000E+00  0.00000000E+00  0.00000000E+00
  0.00000000E+00  0.00000000E+00  0.00000000E+00
  0.00000000E+00  0.00000000E+00  0.00000000E+00
  0.00000000E+00  0.00000000E+00  0.00000000E+00
  0.00000000E+00  0.00000000E+00  0.00000000E+00
  0.00000000E+00  0.00000000E+00  0.00000000E+00
  0.00000000E+00  0.00000000E+00  0.00000000E+00
  0.00000000E+00  0.00000000E+00  0.00000000E+00
  0.00000000E+00  0.00000000E+00  0.00000000E+00
  0.00000000E+00  0.00000000E+00  0.00000000E+00
  0.00000000E+00  0.00000000E+00  0.00000000E+00
  0.00000000E+00  0.00000000E+00  0.00000000E+00
  0.00000000E+00  0.00000000E+00  0.00000000E+00
  0.00000000E+00  0.00000000E+00  0.00000000E+00
  0.00000000E+00  0.00000000E+00  0.00000000E+00
  0.00000000E+00  0.00000000E+00  0.00000000E+00
  0.00000000E+00  0.00000000E+00  0.00000000E+00
  0.00000000E+00  0.00000000E+00  0.00000000E+00
  0.00000000E+00  0.00000000E+00  0.00000000E+00
  0.00000000E+00  0.00000000E+00  0.00000000E+00
  0.00000000E+00  0.00000000E+00  0.00000000E+00
  0.00000000E+00  0.00000000E+00  0.00000000E+00
  0.00000000E+00  0.00000000E+00  0.00000000E+00
  0.00000000E+00  0.00000000E+00  0.00000000E+00
  0.00000000E+00  0.00000000E+00  0.00000000E+00
  0.00000000E+00  0.00000000E+00  0.00000000E+00
  0.00000000E+00  0.00000000E+00  0.00000000E+00
  0.00000000E+00  0.00000000E+00  0.00000000E+00
  0.00000000E+00  0.00000000E+00  0.00000000E+00
  0.00000000E+00  0.00000000E+00  0.00000000E+00
  0.00000000E+00  0.00000000E+00  0.00000000E+00
  0.00000000E+00  0.00000000E+00  0.00000000E+00
  0.00000000E+00  0.00000000E+00  0.00000000E+00
  0.00000000E+00  0.00000000E+00  0.00000000E+00
  0.00000000E+00  0.00000000E+00  0.00000000E+00
  0.00000000E+00  0.00000000E+00  0.00000000E+00
  0.00000000E+00  0.00000000E+00  0.00000000E+00
  0.00000000E+00  0.00000000E+00  0.00000000E+00
  0.00000000E+00  0.00000000E+00  0.00000000E+00
  0.00000000E+00  0.00000000E+00  0.00000000E+00
  0.00000000E+00  0.00000000E+00  0.00000000E+00
  0.00000000E+00  0.00000000E+00  0.00000000E+00
  0.00000000E+00  0.00000000E+00  0.00000000E+00
  0.00000000E+00  0.00000000E+00  0.00000000E+00
  0.00000000E+00  0.00000000E+00  0.00000000E+00
  0.00000000E+00  0.00000000E+00  0.00000000E+00
  0.00000000E+00  0.00000000E+00  0.00000000E+00
  0.00000000E+00  0.00000000E+00  0.00000000E+00
  0.00000000E+00  0.00000000E+00  0.00000000E+00
  0.00000000E+00  0.00000000E+00  0.00000000E+00
  0.00000000E+00  0.00000000E+00  0.00000000E+00
  0.00000000E+00  0.00000000E+00  0.00000000E+00
  0.00000000E+00  0.00000000E+00  0.00000000E+00
  0.00000000E+00  0.00000000E+00  0.00000000E+00
  0.00000000E+00  0.00000000E+00  0.00000000E+00
  0.00000000E+00  0.00000000E+00  0.00000000E+00
  0.00000000E+00  0.00000000E+00  0.00000000E+00
  0.00000000E+00  0.00000000E+00  0.00000000E+00
  0.00000000E+00  0.00000000E+00  0.00000000E+00
  0.00000000E+00  0.00000000E+00  0.00000000E+00
  0.00000000E+00  0.00000000E+00  0.00000000E+00
  0.00000000E+00  0.00000000E+00  0.00000000E+00
  0.00000000E+00  0.00000000E+00  0.00000000E+00
  0.00000000E+00  0.00000000E+00  0.00000000E+00
  0.00000000E+00  0.00000000E+00  0.00000000E+00
  0.00000000E+00  0.00000000E+00  0.00000000E+00
  0.00000000E+00  0.00000000E+00  0.00000000E+00
  0.00000000E+00  0.00000000E+00  0.00000000E+00
  0.00000000E+00  0.00000000E+00  0.00000000E+00
  0.00000000E+00  0.00000000E+00  0.00000000E+00
  0.00000000E+00  0.00000000E+00  0.00000000E+00
  0.00000000E+00  0.00000000E+00  0.00000000E+00
  0.00000000E+00  0.00000000E+00  0.00000000E+00
  0.00000000E+00  0.00000000E+00  0.00000000E+00
  0.00000000E+00  0.00000000E+00  0.00000000E+00
  0.00000000E+00  0.00000000E+00  0.00000000E+00
  0.00000000E+00  0.00000000E+00  0.00000000E+00
  0.00000000E+00  0.00000000E+00  0.00000000E+00
  0.00000000E+00  0.00000000E+00  0.00000000E+00
  0.00000000E+00  0.00000000E+00  0.00000000E+00
  0.00000000E+00  0.00000000E+00  0.00000000E+00
  0.00000000E+00  0.00000000E+00  0.00000000E+00
  0.00000000E+00  0.00000000E+00  0.00000000E+00
  0.00000000E+00  0.00000000E+00  0.00000000E+00
  0.00000000E+00  0.00000000E+00  0.00000000E+00
  0.00000000E+00  0.00000000E+00  0.00000000E+00
  0.00000000E+00  0.00000000E+00  0.00000000E+00
  0.00000000E+00  0.00000000E+00  0.00000000E+00
  0.00000000E+00  0.00000000E+00  0.00000000E+00
  0.00000000E+00  0.00000000E+00  0.00000000E+00
  0.00000000E+00  0.00000000E+00  0.00000000E+00
  0.00000000E+00  0.00000000E+00  0.00000000E+00
  0.00000000E+00  0.00000000E+00  0.00000000E+00
  0.00000000E+00  0.00000000E+00  0.00000000E+00
  0.00000000E+00  0.00000000E+00  0.00000000E+00
  0.00000000E+00  0.00000000E+00  0.00000000E+00
  0.00000000E+00  0.00000000E+00  0.00000000E+00
  0.00000000E+00  0.00000000E+00  0.00000000E+00
  0.00000000E+00  0.00000000E+00  0.00000000E+00
  0.00000000E+00  0.00000000E+00  0.00000000E+00
  0.00000000E+00  0.00000000E+00  0.00000000E+00
  0.00000000E+00  0.00000000E+00  0.00000000E+00
  0.00000000E+00  0.00000000E+00  0.00000000E+00
  0.00000000E+00  0.00000000E+00  0.00000000E+00
  0.00000000E+00  0.00000000E+00  0.00000000E+00
  0.00000000E+00  0.00000000E+00  0.00000000E+00
  0.00000000E+00  0.00000000E+00  0.00000000E+00
  0.00000000E+00  0.00000000E+00  0.00000000E+00
  0.00000000E+00  0.00000000E+00  0.00000000E+00
  0.00000000E+00  0.00000000E+00  0.00000000E+00
  0.00000000E+00  0.00000000E+00  0.00000000E+00
  0.00000000E+00  0.00000000E+00  0.00000000E+00
  0.00000000E+00  0.00000000E+00  0.00000000E+00
  0.00000000E+00  0.00000000E+00  0.00000000E+00
  0.00000000E+00  0.00000000E+00  0.00000000E+00
  0.00000000E+00  0.00000000E+00  0.00000000E+00
  0.00000000E+00  0.00000000E+00  0.00000000E+00
  0.00000000E+00  0.00000000E+00  0.00000000E+00
  0.00000000E+00  0.00000000E+00  0.00000000E+00
  0.00000000E+00  0.00000000E+00  0.00000000E+00
  0.00000000E+00  0.00000000E+00  0.00000000E+00
  0.00000000E+00  0.00000000E+00  0.00000000E+00
  0.00000000E+00  0.00000000E+00  0.00000000E+00
  0.00000000E+00  0.00000000E+00  0.00000000E+00
  0.00000000E+00  0.00000000E+00  0.00000000E+00
  0.00000000E+00  0.00000000E+00  0.00000000E+00
  0.00000000E+00  0.00000000E+00  0.00000000E+00
  0.00000000E+00  0.00000000E+00  0.00000000E+00
  0.00000000E+00  0.00000000E+00  0.00000000E+00
  0.00000000E+00  0.00000000E+00  0.00000000E+00
  0.00000000E+00  0.00000000E+00  0.00000000E+00
  0.00000000E+00  0.00000000E+00  0.00000000E+00
  0.00000000E+00  0.00000000E+00  0.00000000E+00
  0.00000000E+00  0.00000000E+00  0.00000000E+00
  0.00000000E+00  0.00000000E+00  0.00000000E+00
  0.00000000E+00  0.00000000E+00  0.00000000E+00
  0.00000000E+00  0.00000000E+00  0.00000000E+00
  0.00000000E+00  0.00000000E+00  0.00000000E+00
  0.00000000E+00  0.00000000E+00  0.00000000E+00
  0.00000000E+00  0.00000000E+00  0.00000000E+00
  0.00000000E+00  0.00000000E+00  0.00000000E+00
  0.00000000E+00  0.00000000E+00  0.00000000E+00
  0.00000000E+00  0.00000000E+00  0.00000000E+00
  0.00000000E+00  0.00000000E+00  0.00000000E+00
  0.00000000E+00  0.00000000E+00  0.00000000E+00
  0.00000000E+00  0.00000000E+00  0.00000000E+00
  0.00000000E+00  0.00000000E+00  0.00000000E+00
  0.00000000E+00  0.00000000E+00  0.00000000E+00
  0.00000000E+00  0.00000000E+00  0.00000000E+00
  0.00000000E+00  0.00000000E+00  0.00000000E+00
  0.00000000E+00  0.00000000E+00  0.00000000E+00
  0.00000000E+00  0.00000000E+00  0.00000000E+00
  0.00000000E+00  0.00000000E+00  0.00000000E+00
  0.00000000E+00  0.00000000E+00  0.00000000E+00
  0.00000000E+00  0.00000000E+00  0.00000000E+00
  0.00000000E+00  0.00000000E+00  0.00000000E+00
  0.00000000E+00  0.00000000E+00  0.00000000E+00
  0.00000000E+00  0.00000000E+00  0.00000000E+00
  0.00000000E+00  0.00000000E+00  0.00000000E+00
  0.00000000E+00  0.00000000E+00  0.00000000E+00
  0.00000000E+00  0.00000000E+00  0.00000000E+00
  0.00000000E+00  0.00000000E+00  0.00000000E+00
  0.00000000E+00  0.00000000E+00  0.00000000E+00
  0.00000000E+00  0.00000000E+00  0.00000000E+00
  0.00000000E+00  0.00000000E+00  0.00000000E+00
  0.00000000E+00  0.00000000E+00  0.00000000E+00
  0.00000000E+00  0.00000000E+00  0.00000000E+00
  0.00000000E+00  0.00000000E+00  0.00000000E+00
  0.00000000E+00  0.00000000E+00  0.00000000E+00
  0.00000000E+00  0.00000000E+00  0.00000000E+00
  0.00000000E+00  0.00000000E+00  0.00000000E+00
  0.00000000E+00  0.00000000E+00  0.00000000E+00
  0.00000000E+00  0.00000000E+00  0.00000000E+00
  0.00000000E+00  0.00000000E+00  0.00000000E+00
  0.00000000E+00  0.00000000E+00  0.00000000E+00
  0.00000000E+00  0.00000000E+00  0.00000000E+00
  0.00000000E+00  0.00000000E+00  0.00000000E+00
  0.00000000E+00  0.00000000E+00  0.00000000E+00
  0.00000000E+00  0.00000000E+00  0.00000000E+00
  0.00000000E+00  0.00000000E+00  0.00000000E+00
  0.00000000E+00  0.00000000E+00  0.00000000E+00
  0.00000000E+00  0.00000000E+00  0.00000000E+00
  0.00000000E+00  0.00000000E+00  0.00000000E+00
  0.00000000E+00  0.00000000E+00  0.00000000E+00
  0.00000000E+00  0.00000000E+00  0.00000000E+00
  0.00000000E+00  0.00000000E+00  0.00000000E+00
  0.00000000E+00  0.00000000E+00  0.00000000E+00
  0.00000000E+00  0.00000000E+00  0.00000000E+00
  0.00000000E+00  0.00000000E+00  0.00000000E+00
  0.00000000E+00  0.00000000E+00  0.00000000E+00
  0.00000000E+00  0.00000000E+00  0.00000000E+00
  0.00000000E+00  0.00000000E+00  0.00000000E+00
  0.00000000E+00  0.00000000E+00  0.00000000E+00
  0.00000000E+00  0.00000000E+00  0.00000000E+00
  0.00000000E+00  0.00000000E+00  0.00000000E+00
