al12 o18
1.0
        4.8050279617         0.0000000000         0.0000000000
       -2.4025139809         4.1612762808         0.0000000000
        0.0000000000         0.0000000000        13.1162538528
   Al    O
   12   18
Direct
     0.000000000         0.000000000         0.147903991
     0.333333328         0.666666676         0.018762671
     0.333333328         0.666666676         0.314570649
     0.666666669         0.333333338         0.185429333
     0.666666669         0.333333338         0.481237315
     0.000000000         0.000000000         0.352095982
     0.000000000         0.000000000         0.647903946
     0.333333328         0.666666676         0.518762648
     0.333333328         0.666666676         0.814570649
     0.666666669         0.333333338         0.685429315
     0.666666669         0.333333338         0.981237352
     0.000000000         0.000000000         0.852096018
     0.306146008         0.000000000         0.250000000
     0.666666682         0.027187331         0.083333324
    -0.000000004         0.306146000         0.250000000
     0.693853977         0.693853986         0.250000000
     0.972812700         0.639479366         0.083333324
     0.360520661         0.333333338         0.083333324
     0.972812702         0.333333338         0.583333315
     0.333333342         0.360520677         0.416666648
     0.666666692         0.639479366         0.583333315
     0.360520649         0.027187331         0.583333315
     0.639479344         0.972812705         0.416666648
     0.027187330         0.666666676         0.416666648
     0.639479321         0.666666676         0.916666721
     0.000000010         0.693853986         0.750000018
     0.333333361         0.972812705         0.916666721
     0.027187334         0.360520677         0.916666721
     0.306146004         0.306146000         0.750000018
     0.693853967        -0.000000000         0.750000018
