New structure                           
    1.000000000000000     
     0.0000000000000000  -17.1805734624895479    0.0000000000000000
     0.0000000000000000   -8.5902867312447739  -14.8788130701007191
    30.0000000000000000    0.0000000000000000    0.0000000000000000
   Al
   252
Direct
  0.4444444444444429  0.4444444444444429  0.0819263834809428
  0.4444444444444429  0.7777777777777786  0.0819263834809428
  0.4444444444444429  0.1111111111111143  0.0819263834809428
  0.7777777777777786  0.4444444444444429  0.0819263834809428
  0.7777777777777786  0.7777777777777786  0.0819263834809428
  0.7777777777777786  0.1111111111111143  0.0819263834809428
  0.1111111111111143  0.4444444444444429  0.0819263834809428
  0.1111111111111143  0.7777777777777786  0.0819263834809428
  0.1111111111111143  0.1111111111111143  0.0819263834809428
  0.5555555555555571  0.5555555555555571  0.1594894935812947
  0.5555555555555571  0.8888888888888857  0.1594894935812947
  0.5555555555555571  0.2222222222222214  0.1594894935812947
  0.8888888888888857  0.5555555555555571  0.1594894935812947
  0.8888888888888857  0.8888888888888857  0.1594894935812947
  0.8888888888888857  0.2222222222222214  0.1594894935812947
  0.2222222222222214  0.5555555555555571  0.1594894935812947
  0.2222222222222214  0.8888888888888857  0.1594894935812947
  0.2222222222222214  0.2222222222222214  0.1594894935812947
  0.6666666666666643  0.6666666666666643  0.2351642664312461
  0.6666666666666643  0.0000000000000000  0.2351642664312461
  0.6666666666666643  0.3333333333333357  0.2351642664312461
  0.0000000000000000  0.6666666666666643  0.2351642664312461
  0.0000000000000000  0.0000000000000000  0.2351642664312461
  0.0000000000000000  0.3333333333333357  0.2351642664312461
  0.3333333333333357  0.6666666666666643  0.2351642664312461
  0.3333333333333357  0.0000000000000000  0.2351642664312461
  0.3333333333333357  0.3333333333333357  0.2351642664312461
  0.7777777777777786  0.7777777777777786  0.3117306553444550
  0.7777777777777786  0.1111111111111143  0.3117306553444550
  0.7777777777777786  0.4444444444444429  0.3117306553444550
  0.1111111111111143  0.7777777777777786  0.3117306553444550
  0.1111111111111143  0.1111111111111143  0.3117306553444550
  0.1111111111111143  0.4444444444444429  0.3117306553444550
  0.4444444444444429  0.7777777777777786  0.3117306553444550
  0.4444444444444429  0.1111111111111143  0.3117306553444550
  0.4444444444444429  0.4444444444444429  0.3117306553444550
  0.8888888888888857  0.8888888888888857  0.3882970442576568
  0.8888888888888857  0.2222222222222214  0.3882970442576568
  0.8888888888888857  0.5555555555555571  0.3882970442576568
  0.2222222222222214  0.8888888888888857  0.3882970442576568
  0.2222222222222214  0.2222222222222214  0.3882970442576568
  0.2222222222222214  0.5555555555555571  0.3882970442576568
  0.5555555555555571  0.8888888888888857  0.3882970442576568
  0.5555555555555571  0.2222222222222214  0.3882970442576568
  0.5555555555555571  0.5555555555555571  0.3882970442576568
  0.0000000000000000 -0.0000000000000000  0.4639718171076080
  0.0000000000000000  0.3333333333333357  0.4639718171076080
  0.0000000000000000  0.6666666666666643  0.4639718171076080
  0.3333333333333357 -0.0000000000000000  0.4639718171076080
  0.3333333333333357  0.3333333333333357  0.4639718171076080
  0.3333333333333357  0.6666666666666643  0.4639718171076080
  0.6666666666666643  0.0000000000000000  0.4639718171076080
  0.6666666666666643  0.3333333333333357  0.4639718171076080
  0.6666666666666643  0.6666666666666643  0.4639718171076080
  0.1111111111111143  0.1111111111111143  0.5415349272079600
  0.1111111111111143  0.4444444444444429  0.5415349272079600
  0.1111111111111143  0.7777777777777786  0.5415349272079600
  0.4444444444444429  0.1111111111111143  0.5415349272079600
  0.4444444444444429  0.4444444444444429  0.5415349272079600
  0.4444444444444429  0.7777777777777786  0.5415349272079600
  0.7777777777777786  0.1111111111111143  0.5415349272079600
  0.7777777777777786  0.4444444444444429  0.5415349272079600
  0.7777777777777786  0.7777777777777786  0.5415349272079600
  0.2777777777777786  0.2777777777777786  0.0819263834809428
  0.2777777777777786  0.6111111111111143  0.0819263834809428
  0.2777777777777786  0.9444444444444429  0.0819263834809428
  0.6111111111111143  0.2777777777777786  0.0819263834809428
  0.6111111111111143  0.6111111111111143  0.0819263834809428
  0.6111111111111143  0.9444444444444429  0.0819263834809428
  0.9444444444444429  0.2777777777777786  0.0819263834809428
  0.9444444444444429  0.6111111111111143  0.0819263834809428
  0.9444444444444429  0.9444444444444429  0.0819263834809428
  0.3888888888888857  0.3888888888888857  0.1594894935812947
  0.3888888888888857  0.7222222222222214  0.1594894935812947
  0.3888888888888857  0.0555555555555571  0.1594894935812947
  0.7222222222222214  0.3888888888888857  0.1594894935812947
  0.7222222222222214  0.7222222222222214  0.1594894935812947
  0.7222222222222214  0.0555555555555571  0.1594894935812947
  0.0555555555555571  0.3888888888888857  0.1594894935812947
  0.0555555555555571  0.7222222222222214  0.1594894935812947
  0.0555555555555571  0.0555555555555571  0.1594894935812947
  0.5000000000000000  0.5000000000000000  0.2351642664312461
  0.5000000000000000  0.8333333333333357  0.2351642664312461
  0.5000000000000000  0.1666666666666643  0.2351642664312461
  0.8333333333333357  0.5000000000000000  0.2351642664312461
  0.8333333333333357  0.8333333333333357  0.2351642664312461
  0.8333333333333357  0.1666666666666643  0.2351642664312461
  0.1666666666666643  0.5000000000000000  0.2351642664312461
  0.1666666666666643  0.8333333333333357  0.2351642664312461
  0.1666666666666643  0.1666666666666643  0.2351642664312461
  0.6111111111111143  0.6111111111111143  0.3117306553444550
  0.6111111111111143  0.9444444444444429  0.3117306553444550
  0.6111111111111143  0.2777777777777786  0.3117306553444550
  0.9444444444444429  0.6111111111111143  0.3117306553444550
  0.9444444444444429  0.9444444444444429  0.3117306553444550
  0.9444444444444429  0.2777777777777786  0.3117306553444550
  0.2777777777777786  0.6111111111111143  0.3117306553444550
  0.2777777777777786  0.9444444444444429  0.3117306553444550
  0.2777777777777786  0.2777777777777786  0.3117306553444550
  0.7222222222222214  0.7222222222222214  0.3882970442576568
  0.7222222222222214  0.0555555555555571  0.3882970442576568
  0.7222222222222214  0.3888888888888857  0.3882970442576568
  0.0555555555555571  0.7222222222222214  0.3882970442576568
  0.0555555555555571  0.0555555555555571  0.3882970442576568
  0.0555555555555571  0.3888888888888857  0.3882970442576568
  0.3888888888888857  0.7222222222222214  0.3882970442576568
  0.3888888888888857  0.0555555555555571  0.3882970442576568
  0.3888888888888857  0.3888888888888857  0.3882970442576568
  0.8333333333333357  0.8333333333333357  0.4639718171076080
  0.8333333333333357  0.1666666666666643  0.4639718171076080
  0.8333333333333357  0.5000000000000000  0.4639718171076080
  0.1666666666666643  0.8333333333333357  0.4639718171076080
  0.1666666666666643  0.1666666666666643  0.4639718171076080
  0.1666666666666643  0.5000000000000000  0.4639718171076080
  0.5000000000000000  0.8333333333333357  0.4639718171076080
  0.5000000000000000  0.1666666666666643  0.4639718171076080
  0.5000000000000000  0.5000000000000000  0.4639718171076080
  0.9444444444444429  0.9444444444444429  0.5415349272079600
  0.9444444444444429  0.2777777777777786  0.5415349272079600
  0.9444444444444429  0.6111111111111143  0.5415349272079600
  0.2777777777777786  0.9444444444444429  0.5415349272079600
  0.2777777777777786  0.2777777777777786  0.5415349272079600
  0.2777777777777786  0.6111111111111143  0.5415349272079600
  0.6111111111111143  0.9444444444444429  0.5415349272079600
  0.6111111111111143  0.2777777777777786  0.5415349272079600
  0.6111111111111143  0.6111111111111143  0.5415349272079600
  0.2777777777777786  0.4444444444444429  0.0819263834809428
  0.2777777777777786  0.7777777777777786  0.0819263834809428
  0.2777777777777786  0.1111111111111143  0.0819263834809428
  0.6111111111111143  0.4444444444444429  0.0819263834809428
  0.6111111111111143  0.7777777777777786  0.0819263834809428
  0.6111111111111143  0.1111111111111143  0.0819263834809428
  0.9444444444444429  0.4444444444444429  0.0819263834809428
  0.9444444444444429  0.7777777777777786  0.0819263834809428
  0.9444444444444429  0.1111111111111143  0.0819263834809428
  0.3888888888888857  0.5555555555555571  0.1594894935812947
  0.3888888888888857  0.8888888888888857  0.1594894935812947
  0.3888888888888857  0.2222222222222214  0.1594894935812947
  0.7222222222222214  0.5555555555555571  0.1594894935812947
  0.7222222222222214  0.8888888888888857  0.1594894935812947
  0.7222222222222214  0.2222222222222214  0.1594894935812947
  0.0555555555555571  0.5555555555555571  0.1594894935812947
  0.0555555555555571  0.8888888888888857  0.1594894935812947
  0.0555555555555571  0.2222222222222214  0.1594894935812947
  0.5000000000000000  0.6666666666666643  0.2351642664312461
  0.5000000000000000 -0.0000000000000000  0.2351642664312461
  0.5000000000000000  0.3333333333333357  0.2351642664312461
  0.8333333333333357  0.6666666666666643  0.2351642664312461
  0.8333333333333357  0.0000000000000000  0.2351642664312461
  0.8333333333333357  0.3333333333333357  0.2351642664312461
  0.1666666666666643  0.6666666666666643  0.2351642664312461
  0.1666666666666643  0.0000000000000000  0.2351642664312461
  0.1666666666666643  0.3333333333333357  0.2351642664312461
  0.6111111111111143  0.7777777777777786  0.3117306553444550
  0.6111111111111143  0.1111111111111143  0.3117306553444550
  0.6111111111111143  0.4444444444444429  0.3117306553444550
  0.9444444444444429  0.7777777777777786  0.3117306553444550
  0.9444444444444429  0.1111111111111143  0.3117306553444550
  0.9444444444444429  0.4444444444444429  0.3117306553444550
  0.2777777777777786  0.7777777777777786  0.3117306553444550
  0.2777777777777786  0.1111111111111143  0.3117306553444550
  0.2777777777777786  0.4444444444444429  0.3117306553444550
  0.7222222222222214  0.8888888888888857  0.3882970442576568
  0.7222222222222214  0.2222222222222214  0.3882970442576568
  0.7222222222222214  0.5555555555555571  0.3882970442576568
  0.0555555555555571  0.8888888888888857  0.3882970442576568
  0.0555555555555571  0.2222222222222214  0.3882970442576568
  0.0555555555555571  0.5555555555555571  0.3882970442576568
  0.3888888888888857  0.8888888888888857  0.3882970442576568
  0.3888888888888857  0.2222222222222214  0.3882970442576568
  0.3888888888888857  0.5555555555555571  0.3882970442576568
  0.8333333333333357 -0.0000000000000000  0.4639718171076080
  0.8333333333333357  0.3333333333333357  0.4639718171076080
  0.8333333333333357  0.6666666666666643  0.4639718171076080
  0.1666666666666643  0.0000000000000000  0.4639718171076080
  0.1666666666666643  0.3333333333333357  0.4639718171076080
  0.1666666666666643  0.6666666666666643  0.4639718171076080
  0.5000000000000000  0.0000000000000000  0.4639718171076080
  0.5000000000000000  0.3333333333333357  0.4639718171076080
  0.5000000000000000  0.6666666666666643  0.4639718171076080
  0.9444444444444429  0.1111111111111143  0.5415349272079600
  0.9444444444444429  0.4444444444444429  0.5415349272079600
  0.9444444444444429  0.7777777777777786  0.5415349272079600
  0.2777777777777786  0.1111111111111143  0.5415349272079600
  0.2777777777777786  0.4444444444444429  0.5415349272079600
  0.2777777777777786  0.7777777777777786  0.5415349272079600
  0.6111111111111143  0.1111111111111143  0.5415349272079600
  0.6111111111111143  0.4444444444444429  0.5415349272079600
  0.6111111111111143  0.7777777777777786  0.5415349272079600
  0.4444444444444429  0.2777777777777786  0.0819263834809428
  0.4444444444444429  0.6111111111111143  0.0819263834809428
  0.4444444444444429  0.9444444444444429  0.0819263834809428
  0.7777777777777786  0.2777777777777786  0.0819263834809428
  0.7777777777777786  0.6111111111111143  0.0819263834809428
  0.7777777777777786  0.9444444444444429  0.0819263834809428
  0.1111111111111143  0.2777777777777786  0.0819263834809428
  0.1111111111111143  0.6111111111111143  0.0819263834809428
  0.1111111111111143  0.9444444444444429  0.0819263834809428
  0.5555555555555571  0.3888888888888857  0.1594894935812947
  0.5555555555555571  0.7222222222222214  0.1594894935812947
  0.5555555555555571  0.0555555555555571  0.1594894935812947
  0.8888888888888857  0.3888888888888857  0.1594894935812947
  0.8888888888888857  0.7222222222222214  0.1594894935812947
  0.8888888888888857  0.0555555555555571  0.1594894935812947
  0.2222222222222214  0.3888888888888857  0.1594894935812947
  0.2222222222222214  0.7222222222222214  0.1594894935812947
  0.2222222222222214  0.0555555555555571  0.1594894935812947
  0.6666666666666643  0.5000000000000000  0.2351642664312461
  0.6666666666666643  0.8333333333333357  0.2351642664312461
  0.6666666666666643  0.1666666666666643  0.2351642664312461
  0.0000000000000000  0.5000000000000000  0.2351642664312461
  0.0000000000000000  0.8333333333333357  0.2351642664312461
  0.0000000000000000  0.1666666666666643  0.2351642664312461
  0.3333333333333357  0.5000000000000000  0.2351642664312461
  0.3333333333333357  0.8333333333333357  0.2351642664312461
  0.3333333333333357  0.1666666666666643  0.2351642664312461
  0.7777777777777786  0.6111111111111143  0.3117306553444550
  0.7777777777777786  0.9444444444444429  0.3117306553444550
  0.7777777777777786  0.2777777777777786  0.3117306553444550
  0.1111111111111143  0.6111111111111143  0.3117306553444550
  0.1111111111111143  0.9444444444444429  0.3117306553444550
  0.1111111111111143  0.2777777777777786  0.3117306553444550
  0.4444444444444429  0.6111111111111143  0.3117306553444550
  0.4444444444444429  0.9444444444444429  0.3117306553444550
  0.4444444444444429  0.2777777777777786  0.3117306553444550
  0.8888888888888857  0.7222222222222214  0.3882970442576568
  0.8888888888888857  0.0555555555555571  0.3882970442576568
  0.8888888888888857  0.3888888888888857  0.3882970442576568
  0.2222222222222214  0.7222222222222214  0.3882970442576568
  0.2222222222222214  0.0555555555555571  0.3882970442576568
  0.2222222222222214  0.3888888888888857  0.3882970442576568
  0.5555555555555571  0.7222222222222214  0.3882970442576568
  0.5555555555555571  0.0555555555555571  0.3882970442576568
  0.5555555555555571  0.3888888888888857  0.3882970442576568
  0.0000000000000000  0.8333333333333357  0.4639718171076080
  0.0000000000000000  0.1666666666666643  0.4639718171076080
  0.0000000000000000  0.5000000000000000  0.4639718171076080
  0.3333333333333357  0.8333333333333357  0.4639718171076080
  0.3333333333333357  0.1666666666666643  0.4639718171076080
  0.3333333333333357  0.5000000000000000  0.4639718171076080
  0.6666666666666643  0.8333333333333357  0.4639718171076080
  0.6666666666666643  0.1666666666666643  0.4639718171076080
  0.6666666666666643  0.5000000000000000  0.4639718171076080
  0.1111111111111143  0.9444444444444429  0.5415349272079600
  0.1111111111111143  0.2777777777777786  0.5415349272079600
  0.1111111111111143  0.6111111111111143  0.5415349272079600
  0.4444444444444429  0.9444444444444429  0.5415349272079600
  0.4444444444444429  0.2777777777777786  0.5415349272079600
  0.4444444444444429  0.6111111111111143  0.5415349272079600
  0.7777777777777786  0.9444444444444429  0.5415349272079600
  0.7777777777777786  0.2777777777777786  0.5415349272079600
  0.7777777777777786  0.6111111111111143  0.5415349272079600
 
  0.00000000E+00  0.00000000E+00  0.00000000E+00
  0.00000000E+00  0.00000000E+00  0.00000000E+00
  0.00000000E+00  0.00000000E+00  0.00000000E+00
  0.00000000E+00  0.00000000E+00  0.00000000E+00
  0.00000000E+00  0.00000000E+00  0.00000000E+00
  0.00000000E+00  0.00000000E+00  0.00000000E+00
  0.00000000E+00  0.00000000E+00  0.00000000E+00
  0.00000000E+00  0.00000000E+00  0.00000000E+00
  0.00000000E+00  0.00000000E+00  0.00000000E+00
  0.00000000E+00  0.00000000E+00  0.00000000E+00
  0.00000000E+00  0.00000000E+00  0.00000000E+00
  0.00000000E+00  0.00000000E+00  0.00000000E+00
  0.00000000E+00  0.00000000E+00  0.00000000E+00
  0.00000000E+00  0.00000000E+00  0.00000000E+00
  0.00000000E+00  0.00000000E+00  0.00000000E+00
  0.00000000E+00  0.00000000E+00  0.00000000E+00
  0.00000000E+00  0.00000000E+00  0.00000000E+00
  0.00000000E+00  0.00000000E+00  0.00000000E+00
  0.00000000E+00  0.00000000E+00  0.00000000E+00
  0.00000000E+00  0.00000000E+00  0.00000000E+00
  0.00000000E+00  0.00000000E+00  0.00000000E+00
  0.00000000E+00  0.00000000E+00  0.00000000E+00
  0.00000000E+00  0.00000000E+00  0.00000000E+00
  0.00000000E+00  0.00000000E+00  0.00000000E+00
  0.00000000E+00  0.00000000E+00  0.00000000E+00
  0.00000000E+00  0.00000000E+00  0.00000000E+00
  0.00000000E+00  0.00000000E+00  0.00000000E+00
  0.00000000E+00  0.00000000E+00  0.00000000E+00
  0.00000000E+00  0.00000000E+00  0.00000000E+00
  0.00000000E+00  0.00000000E+00  0.00000000E+00
  0.00000000E+00  0.00000000E+00  0.00000000E+00
  0.00000000E+00  0.00000000E+00  0.00000000E+00
  0.00000000E+00  0.00000000E+00  0.00000000E+00
  0.00000000E+00  0.00000000E+00  0.00000000E+00
  0.00000000E+00  0.00000000E+00  0.00000000E+00
  0.00000000E+00  0.00000000E+00  0.00000000E+00
  0.00000000E+00  0.00000000E+00  0.00000000E+00
  0.00000000E+00  0.00000000E+00  0.00000000E+00
  0.00000000E+00  0.00000000E+00  0.00000000E+00
  0.00000000E+00  0.00000000E+00  0.00000000E+00
  0.00000000E+00  0.00000000E+00  0.00000000E+00
  0.00000000E+00  0.00000000E+00  0.00000000E+00
  0.00000000E+00  0.00000000E+00  0.00000000E+00
  0.00000000E+00  0.00000000E+00  0.00000000E+00
  0.00000000E+00  0.00000000E+00  0.00000000E+00
  0.00000000E+00  0.00000000E+00  0.00000000E+00
  0.00000000E+00  0.00000000E+00  0.00000000E+00
  0.00000000E+00  0.00000000E+00  0.00000000E+00
  0.00000000E+00  0.00000000E+00  0.00000000E+00
  0.00000000E+00  0.00000000E+00  0.00000000E+00
  0.00000000E+00  0.00000000E+00  0.00000000E+00
  0.00000000E+00  0.00000000E+00  0.00000000E+00
  0.00000000E+00  0.00000000E+00  0.00000000E+00
  0.00000000E+00  0.00000000E+00  0.00000000E+00
  0.00000000E+00  0.00000000E+00  0.00000000E+00
  0.00000000E+00  0.00000000E+00  0.00000000E+00
  0.00000000E+00  0.00000000E+00  0.00000000E+00
  0.00000000E+00  0.00000000E+00  0.00000000E+00
  0.00000000E+00  0.00000000E+00  0.00000000E+00
  0.00000000E+00  0.00000000E+00  0.00000000E+00
  0.00000000E+00  0.00000000E+00  0.00000000E+00
  0.00000000E+00  0.00000000E+00  0.00000000E+00
  0.00000000E+00  0.00000000E+00  0.00000000E+00
  0.00000000E+00  0.00000000E+00  0.00000000E+00
  0.00000000E+00  0.00000000E+00  0.00000000E+00
  0.00000000E+00  0.00000000E+00  0.00000000E+00
  0.00000000E+00  0.00000000E+00  0.00000000E+00
  0.00000000E+00  0.00000000E+00  0.00000000E+00
  0.00000000E+00  0.00000000E+00  0.00000000E+00
  0.00000000E+00  0.00000000E+00  0.00000000E+00
  0.00000000E+00  0.00000000E+00  0.00000000E+00
  0.00000000E+00  0.00000000E+00  0.00000000E+00
  0.00000000E+00  0.00000000E+00  0.00000000E+00
  0.00000000E+00  0.00000000E+00  0.00000000E+00
  0.00000000E+00  0.00000000E+00  0.00000000E+00
  0.00000000E+00  0.00000000E+00  0.00000000E+00
  0.00000000E+00  0.00000000E+00  0.00000000E+00
  0.00000000E+00  0.00000000E+00  0.00000000E+00
  0.00000000E+00  0.00000000E+00  0.00000000E+00
  0.00000000E+00  0.00000000E+00  0.00000000E+00
  0.00000000E+00  0.00000000E+00  0.00000000E+00
  0.00000000E+00  0.00000000E+00  0.00000000E+00
  0.00000000E+00  0.00000000E+00  0.00000000E+00
  0.00000000E+00  0.00000000E+00  0.00000000E+00
  0.00000000E+00  0.00000000E+00  0.00000000E+00
  0.00000000E+00  0.00000000E+00  0.00000000E+00
  0.00000000E+00  0.00000000E+00  0.00000000E+00
  0.00000000E+00  0.00000000E+00  0.00000000E+00
  0.00000000E+00  0.00000000E+00  0.00000000E+00
  0.00000000E+00  0.00000000E+00  0.00000000E+00
  0.00000000E+00  0.00000000E+00  0.00000000E+00
  0.00000000E+00  0.00000000E+00  0.00000000E+00
  0.00000000E+00  0.00000000E+00  0.00000000E+00
  0.00000000E+00  0.00000000E+00  0.00000000E+00
  0.00000000E+00  0.00000000E+00  0.00000000E+00
  0.00000000E+00  0.00000000E+00  0.00000000E+00
  0.00000000E+00  0.00000000E+00  0.00000000E+00
  0.00000000E+00  0.00000000E+00  0.00000000E+00
  0.00000000E+00  0.00000000E+00  0.00000000E+00
  0.00000000E+00  0.00000000E+00  0.00000000E+00
  0.00000000E+00  0.00000000E+00  0.00000000E+00
  0.00000000E+00  0.00000000E+00  0.00000000E+00
  0.00000000E+00  0.00000000E+00  0.00000000E+00
  0.00000000E+00  0.00000000E+00  0.00000000E+00
  0.00000000E+00  0.00000000E+00  0.00000000E+00
  0.00000000E+00  0.00000000E+00  0.00000000E+00
  0.00000000E+00  0.00000000E+00  0.00000000E+00
  0.00000000E+00  0.00000000E+00  0.00000000E+00
  0.00000000E+00  0.00000000E+00  0.00000000E+00
  0.00000000E+00  0.00000000E+00  0.00000000E+00
  0.00000000E+00  0.00000000E+00  0.00000000E+00
  0.00000000E+00  0.00000000E+00  0.00000000E+00
  0.00000000E+00  0.00000000E+00  0.00000000E+00
  0.00000000E+00  0.00000000E+00  0.00000000E+00
  0.00000000E+00  0.00000000E+00  0.00000000E+00
  0.00000000E+00  0.00000000E+00  0.00000000E+00
  0.00000000E+00  0.00000000E+00  0.00000000E+00
  0.00000000E+00  0.00000000E+00  0.00000000E+00
  0.00000000E+00  0.00000000E+00  0.00000000E+00
  0.00000000E+00  0.00000000E+00  0.00000000E+00
  0.00000000E+00  0.00000000E+00  0.00000000E+00
  0.00000000E+00  0.00000000E+00  0.00000000E+00
  0.00000000E+00  0.00000000E+00  0.00000000E+00
  0.00000000E+00  0.00000000E+00  0.00000000E+00
  0.00000000E+00  0.00000000E+00  0.00000000E+00
  0.00000000E+00  0.00000000E+00  0.00000000E+00
  0.00000000E+00  0.00000000E+00  0.00000000E+00
  0.00000000E+00  0.00000000E+00  0.00000000E+00
  0.00000000E+00  0.00000000E+00  0.00000000E+00
  0.00000000E+00  0.00000000E+00  0.00000000E+00
  0.00000000E+00  0.00000000E+00  0.00000000E+00
  0.00000000E+00  0.00000000E+00  0.00000000E+00
  0.00000000E+00  0.00000000E+00  0.00000000E+00
  0.00000000E+00  0.00000000E+00  0.00000000E+00
  0.00000000E+00  0.00000000E+00  0.00000000E+00
  0.00000000E+00  0.00000000E+00  0.00000000E+00
  0.00000000E+00  0.00000000E+00  0.00000000E+00
  0.00000000E+00  0.00000000E+00  0.00000000E+00
  0.00000000E+00  0.00000000E+00  0.00000000E+00
  0.00000000E+00  0.00000000E+00  0.00000000E+00
  0.00000000E+00  0.00000000E+00  0.00000000E+00
  0.00000000E+00  0.00000000E+00  0.00000000E+00
  0.00000000E+00  0.00000000E+00  0.00000000E+00
  0.00000000E+00  0.00000000E+00  0.00000000E+00
  0.00000000E+00  0.00000000E+00  0.00000000E+00
  0.00000000E+00  0.00000000E+00  0.00000000E+00
  0.00000000E+00  0.00000000E+00  0.00000000E+00
  0.00000000E+00  0.00000000E+00  0.00000000E+00
  0.00000000E+00  0.00000000E+00  0.00000000E+00
  0.00000000E+00  0.00000000E+00  0.00000000E+00
  0.00000000E+00  0.00000000E+00  0.00000000E+00
  0.00000000E+00  0.00000000E+00  0.00000000E+00
  0.00000000E+00  0.00000000E+00  0.00000000E+00
  0.00000000E+00  0.00000000E+00  0.00000000E+00
  0.00000000E+00  0.00000000E+00  0.00000000E+00
  0.00000000E+00  0.00000000E+00  0.00000000E+00
  0.00000000E+00  0.00000000E+00  0.00000000E+00
  0.00000000E+00  0.00000000E+00  0.00000000E+00
  0.00000000E+00  0.00000000E+00  0.00000000E+00
  0.00000000E+00  0.00000000E+00  0.00000000E+00
  0.00000000E+00  0.00000000E+00  0.00000000E+00
  0.00000000E+00  0.00000000E+00  0.00000000E+00
  0.00000000E+00  0.00000000E+00  0.00000000E+00
  0.00000000E+00  0.00000000E+00  0.00000000E+00
  0.00000000E+00  0.00000000E+00  0.00000000E+00
  0.00000000E+00  0.00000000E+00  0.00000000E+00
  0.00000000E+00  0.00000000E+00  0.00000000E+00
  0.00000000E+00  0.00000000E+00  0.00000000E+00
  0.00000000E+00  0.00000000E+00  0.00000000E+00
  0.00000000E+00  0.00000000E+00  0.00000000E+00
  0.00000000E+00  0.00000000E+00  0.00000000E+00
  0.00000000E+00  0.00000000E+00  0.00000000E+00
  0.00000000E+00  0.00000000E+00  0.00000000E+00
  0.00000000E+00  0.00000000E+00  0.00000000E+00
  0.00000000E+00  0.00000000E+00  0.00000000E+00
  0.00000000E+00  0.00000000E+00  0.00000000E+00
  0.00000000E+00  0.00000000E+00  0.00000000E+00
  0.00000000E+00  0.00000000E+00  0.00000000E+00
  0.00000000E+00  0.00000000E+00  0.00000000E+00
  0.00000000E+00  0.00000000E+00  0.00000000E+00
  0.00000000E+00  0.00000000E+00  0.00000000E+00
  0.00000000E+00  0.00000000E+00  0.00000000E+00
  0.00000000E+00  0.00000000E+00  0.00000000E+00
  0.00000000E+00  0.00000000E+00  0.00000000E+00
  0.00000000E+00  0.00000000E+00  0.00000000E+00
  0.00000000E+00  0.00000000E+00  0.00000000E+00
  0.00000000E+00  0.00000000E+00  0.00000000E+00
  0.00000000E+00  0.00000000E+00  0.00000000E+00
  0.00000000E+00  0.00000000E+00  0.00000000E+00
  0.00000000E+00  0.00000000E+00  0.00000000E+00
  0.00000000E+00  0.00000000E+00  0.00000000E+00
  0.00000000E+00  0.00000000E+00  0.00000000E+00
  0.00000000E+00  0.00000000E+00  0.00000000E+00
  0.00000000E+00  0.00000000E+00  0.00000000E+00
  0.00000000E+00  0.00000000E+00  0.00000000E+00
  0.00000000E+00  0.00000000E+00  0.00000000E+00
  0.00000000E+00  0.00000000E+00  0.00000000E+00
  0.00000000E+00  0.00000000E+00  0.00000000E+00
  0.00000000E+00  0.00000000E+00  0.00000000E+00
  0.00000000E+00  0.00000000E+00  0.00000000E+00
  0.00000000E+00  0.00000000E+00  0.00000000E+00
  0.00000000E+00  0.00000000E+00  0.00000000E+00
  0.00000000E+00  0.00000000E+00  0.00000000E+00
  0.00000000E+00  0.00000000E+00  0.00000000E+00
  0.00000000E+00  0.00000000E+00  0.00000000E+00
  0.00000000E+00  0.00000000E+00  0.00000000E+00
  0.00000000E+00  0.00000000E+00  0.00000000E+00
  0.00000000E+00  0.00000000E+00  0.00000000E+00
  0.00000000E+00  0.00000000E+00  0.00000000E+00
  0.00000000E+00  0.00000000E+00  0.00000000E+00
  0.00000000E+00  0.00000000E+00  0.00000000E+00
  0.00000000E+00  0.00000000E+00  0.00000000E+00
  0.00000000E+00  0.00000000E+00  0.00000000E+00
  0.00000000E+00  0.00000000E+00  0.00000000E+00
  0.00000000E+00  0.00000000E+00  0.00000000E+00
  0.00000000E+00  0.00000000E+00  0.00000000E+00
  0.00000000E+00  0.00000000E+00  0.00000000E+00
  0.00000000E+00  0.00000000E+00  0.00000000E+00
  0.00000000E+00  0.00000000E+00  0.00000000E+00
  0.00000000E+00  0.00000000E+00  0.00000000E+00
  0.00000000E+00  0.00000000E+00  0.00000000E+00
  0.00000000E+00  0.00000000E+00  0.00000000E+00
  0.00000000E+00  0.00000000E+00  0.00000000E+00
  0.00000000E+00  0.00000000E+00  0.00000000E+00
  0.00000000E+00  0.00000000E+00  0.00000000E+00
  0.00000000E+00  0.00000000E+00  0.00000000E+00
  0.00000000E+00  0.00000000E+00  0.00000000E+00
  0.00000000E+00  0.00000000E+00  0.00000000E+00
  0.00000000E+00  0.00000000E+00  0.00000000E+00
  0.00000000E+00  0.00000000E+00  0.00000000E+00
  0.00000000E+00  0.00000000E+00  0.00000000E+00
  0.00000000E+00  0.00000000E+00  0.00000000E+00
  0.00000000E+00  0.00000000E+00  0.00000000E+00
  0.00000000E+00  0.00000000E+00  0.00000000E+00
  0.00000000E+00  0.00000000E+00  0.00000000E+00
  0.00000000E+00  0.00000000E+00  0.00000000E+00
  0.00000000E+00  0.00000000E+00  0.00000000E+00
  0.00000000E+00  0.00000000E+00  0.00000000E+00
  0.00000000E+00  0.00000000E+00  0.00000000E+00
  0.00000000E+00  0.00000000E+00  0.00000000E+00
  0.00000000E+00  0.00000000E+00  0.00000000E+00
  0.00000000E+00  0.00000000E+00  0.00000000E+00
  0.00000000E+00  0.00000000E+00  0.00000000E+00
  0.00000000E+00  0.00000000E+00  0.00000000E+00
  0.00000000E+00  0.00000000E+00  0.00000000E+00
  0.00000000E+00  0.00000000E+00  0.00000000E+00
  0.00000000E+00  0.00000000E+00  0.00000000E+00
  0.00000000E+00  0.00000000E+00  0.00000000E+00
  0.00000000E+00  0.00000000E+00  0.00000000E+00
  0.00000000E+00  0.00000000E+00  0.00000000E+00
  0.00000000E+00  0.00000000E+00  0.00000000E+00
  0.00000000E+00  0.00000000E+00  0.00000000E+00
