New structure                           
    1.000000000000000     
    14.5000000000000000    0.0000000000000000    0.0000000000000000
     0.0000000000000000   14.5000000000000000    0.0000000000000000
     0.0000000000000000    0.0000000000000000   14.5000000000000000
   Ni   Al   O 
   125   125     1
Direct
  0.0001064540505373 -0.0000725991029327  0.0000534618701408
 -0.0002475498180673 -0.0002127382649002  0.1998418755503514
 -0.0005780854460782 -0.0003216549547358  0.3999999999999986
 -0.0002475498180673 -0.0002127382649002  0.6001581244496524
  0.0001064540505373 -0.0000725991029327  0.7999465381298562
 -0.0001468816071801  0.2000000000000028 -0.0001007829091663
 -0.0002686762562354  0.2000000000000028  0.2002711902414654
 -0.0003651663847446  0.2000000000000028  0.3999999999999986
 -0.0002686762562354  0.2000000000000028  0.5997288097585390
 -0.0001468816071801  0.2000000000000028  0.8001007829091635
  0.0001064540505373  0.4000725991029312  0.0000534618701408
 -0.0002475498180673  0.4002127382648988  0.1998418755503514
 -0.0005780854460782  0.4003216549547344  0.3999999999999986
 -0.0002475498180673  0.4002127382648988  0.6001581244496524
  0.0001064540505373  0.4000725991029312  0.7999465381298562
  0.0000779783769767  0.5999220216230247 -0.0002148601691661
 -0.0001160719460363  0.6001160719460378  0.1998263484112652
 -0.0002822952147996  0.6002822952148011  0.3999999999999986
 -0.0001160719460363  0.6001160719460378  0.6001736515887394
  0.0000779783769767  0.5999220216230247  0.8002148601691632
  0.0000779783769767  0.8000779783769739 -0.0002148601691661
 -0.0001160719460363  0.7998839280539608  0.1998263484112652
 -0.0002822952147996  0.7997177047851974  0.3999999999999986
 -0.0001160719460363  0.7998839280539608  0.6001736515887394
  0.0000779783769767  0.8000779783769739  0.8002148601691632
  0.2001834002626218  0.0001834002626190  0.0002749519814619
  0.1987503858305067 -0.0012496141694962  0.2014869445668847
  0.1993069105206264 -0.0006930894793765  0.3999999999999986
  0.1987503858305067 -0.0012496141694962  0.5985130554331197
  0.2001834002626218  0.0001834002626190  0.7997250480185356
  0.1998224802177261  0.2000000000000028 -0.0000181342688067
  0.1980127045483335  0.2000000000000028  0.2016637000785327
  0.1988419838737411  0.2000000000000028  0.3999999999999986
  0.1980127045483335  0.2000000000000028  0.5983362999214714
  0.1998224802177261  0.2000000000000028  0.8000181342688040
  0.2001834002626218  0.3998165997373797  0.0002749519814619
  0.1987503858305067  0.4012496141694948  0.2014869445668847
  0.1993069105206264  0.4006930894793752  0.3999999999999986
  0.1987503858305067  0.4012496141694948  0.5985130554331197
  0.2001834002626218  0.3998165997373797  0.7997250480185356
  0.1999274008970701  0.5998935459494641  0.0000534618701408
  0.1997872617351026  0.6002475498180688  0.1998418755503514
  0.1996783450452669  0.6005780854460794  0.3999999999999986
  0.1997872617351026  0.6002475498180688  0.6001581244496524
  0.1999274008970701  0.5998935459494641  0.7999465381298562
  0.1999274008970701  0.8001064540505345  0.0000534618701408
  0.1997872617351026  0.7997524501819298  0.1998418755503514
  0.1996783450452669  0.7994219145539192  0.3999999999999986
  0.1997872617351026  0.7997524501819298  0.6001581244496524
  0.1999274008970701  0.8001064540505345  0.7999465381298562
  0.3999999999999986 -0.0001775197822768 -0.0000181342688067
  0.3999999999999986 -0.0019872954516693  0.2016637000785327
  0.3999999999999986 -0.0011580161262618  0.3999999999999986
  0.3999999999999986 -0.0019872954516693  0.5983362999214714
  0.3999999999999986 -0.0001775197822768  0.8000181342688040
  0.3999999999999986  0.2000000000000028  0.0317393985195646
  0.3999999999999986  0.2000000000000028  0.2036057053358246
  0.3999999999999986  0.2000000000000028  0.3999999999999986
  0.3999999999999986  0.2000000000000028  0.5963942946641797
  0.3999999999999986  0.2000000000000028  0.7682606014804326
  0.3999999999999986  0.4001775197822752 -0.0000181342688067
  0.3999999999999986  0.4019872954516681  0.2016637000785327
  0.3999999999999986  0.4011580161262603  0.3999999999999986
  0.3999999999999986  0.4019872954516681  0.5983362999214714
  0.3999999999999986  0.4001775197822752  0.8000181342688040
  0.3999999999999986  0.6001468816071814 -0.0001007829091663
  0.3999999999999986  0.6002686762562366  0.2002711902414654
  0.3999999999999986  0.6003651663847459  0.3999999999999986
  0.3999999999999986  0.6002686762562366  0.5997288097585390
  0.3999999999999986  0.6001468816071814  0.8001007829091635
  0.3999999999999986  0.7998531183928171 -0.0001007829091663
  0.3999999999999986  0.7997313237437620  0.2002711902414654
  0.3999999999999986  0.7996348336152527  0.3999999999999986
  0.3999999999999986  0.7997313237437620  0.5997288097585390
  0.3999999999999986  0.7998531183928171  0.8001007829091635
  0.5998165997373821  0.0001834002626190  0.0002749519814619
  0.6012496141694971 -0.0012496141694962  0.2014869445668847
  0.6006930894793779 -0.0006930894793765  0.3999999999999986
  0.6012496141694971 -0.0012496141694962  0.5985130554331197
  0.5998165997373821  0.0001834002626190  0.7997250480185356
  0.6001775197822784  0.2000000000000028 -0.0000181342688067
  0.6019872954516706  0.2000000000000028  0.2016637000785327
  0.6011580161262632  0.2000000000000028  0.3999999999999986
  0.6019872954516706  0.2000000000000028  0.5983362999214714
  0.6001775197822784  0.2000000000000028  0.8000181342688040
  0.5998165997373821  0.3998165997373797  0.0002749519814619
  0.6012496141694971  0.4012496141694948  0.2014869445668847
  0.6006930894793779  0.4006930894793752  0.3999999999999986
  0.6012496141694971  0.4012496141694948  0.5985130554331197
  0.5998165997373821  0.3998165997373797  0.7997250480185356
  0.6000725991029342  0.5998935459494641  0.0000534618701408
  0.6002127382649016  0.6002475498180688  0.1998418755503514
  0.6003216549547374  0.6005780854460794  0.3999999999999986
  0.6002127382649016  0.6002475498180688  0.6001581244496524
  0.6000725991029342  0.5998935459494641  0.7999465381298562
  0.6000725991029342  0.8001064540505345  0.0000534618701408
  0.6002127382649016  0.7997524501819298  0.1998418755503514
  0.6003216549547374  0.7994219145539192  0.3999999999999986
  0.6002127382649016  0.7997524501819298  0.6001581244496524
  0.6000725991029342  0.8001064540505345  0.7999465381298562
  0.7998935459494598 -0.0000725991029327  0.0000534618701408
  0.8002475498180646 -0.0002127382649002  0.1998418755503514
  0.8005780854460751 -0.0003216549547358  0.3999999999999986
  0.8002475498180646 -0.0002127382649002  0.6001581244496524
  0.7998935459494598 -0.0000725991029327  0.7999465381298562
  0.8001468816071772  0.2000000000000028 -0.0001007829091663
  0.8002686762562323  0.2000000000000028  0.2002711902414654
  0.8003651663847416  0.2000000000000028  0.3999999999999986
  0.8002686762562323  0.2000000000000028  0.5997288097585390
  0.8001468816071772  0.2000000000000028  0.8001007829091635
  0.7998935459494598  0.4000725991029312  0.0000534618701408
  0.8002475498180646  0.4002127382648988  0.1998418755503514
  0.8005780854460751  0.4003216549547344  0.3999999999999986
  0.8002475498180646  0.4002127382648988  0.6001581244496524
  0.7998935459494598  0.4000725991029312  0.7999465381298562
  0.7999220216230204  0.5999220216230247 -0.0002148601691661
  0.8001160719460335  0.6001160719460378  0.1998263484112652
  0.8002822952147969  0.6002822952148011  0.3999999999999986
  0.8001160719460335  0.6001160719460378  0.6001736515887394
  0.7999220216230204  0.5999220216230247  0.8002148601691632
  0.7999220216230204  0.8000779783769739 -0.0002148601691661
  0.8001160719460335  0.7998839280539608  0.1998263484112652
  0.8002822952147969  0.7997177047851974  0.3999999999999986
  0.8001160719460335  0.7998839280539608  0.6001736515887394
  0.7999220216230204  0.8000779783769739  0.8002148601691632
  0.0994882590746873  0.0999259298518122  0.1003638324804347
  0.0992443871384146  0.0995740448178578  0.3004172081717894
  0.0992443871384146  0.0995740448178578  0.4995827918282078
  0.0994882590746873  0.0999259298518122  0.6996361675195696
  0.0998123966199216  0.1001500328602486  0.8999999999999986
  0.0994882590746873  0.3000740701481865  0.1003638324804347
  0.0992443871384146  0.3004259551821406  0.3004172081717894
  0.0992443871384146  0.3004259551821406  0.4995827918282078
  0.0994882590746873  0.3000740701481865  0.6996361675195696
  0.0998123966199216  0.2998499671397500  0.8999999999999986
  0.0997841798107231  0.5002158201892783  0.1000303091808491
  0.0992773602734285  0.5007226397265733  0.3002384950253033
  0.0992773602734285  0.5007226397265733  0.4997615049746938
  0.0997841798107231  0.5002158201892783  0.6999696908191553
  0.1003259965245128  0.4996740034754887  0.8999999999999986
  0.0997869345437905  0.7000000000000028  0.0997870568473872
  0.0996825338514048  0.7000000000000028  0.2997790688900682
  0.0996825338514048  0.7000000000000028  0.5002209311099290
  0.0997869345437905  0.7000000000000028  0.7002129431526171
  0.1001283960996539  0.7000000000000028  0.8999999999999986
  0.0997841798107231  0.8997841798107202  0.1000303091808491
  0.0992773602734285  0.8992773602734253  0.3002384950253033
  0.0992773602734285  0.8992773602734253  0.4997615049746938
  0.0997841798107231  0.8997841798107202  0.6999696908191553
  0.1003259965245128  0.9003259965245101  0.8999999999999986
  0.2968392913789616  0.0968392913789658  0.1045451057664807
  0.2994726050845592  0.0994726050845635  0.3010971102878496
  0.2994726050845592  0.0994726050845635  0.4989028897121476
  0.2968392913789616  0.0968392913789658  0.6954548942335237
  0.3000808214760521  0.1000808214760563  0.8999999999999986
  0.2968392913789616  0.3031607086210327  0.1045451057664807
  0.2994726050845592  0.3005273949154351  0.3010971102878496
  0.2994726050845592  0.3005273949154351  0.4989028897121476
  0.2968392913789616  0.3031607086210327  0.6954548942335237
  0.3000808214760521  0.2999191785239422  0.8999999999999986
  0.2999259298518078  0.5005117409253144  0.1003638324804347
  0.2995740448178537  0.5007556128615869  0.3004172081717894
  0.2995740448178537  0.5007556128615869  0.4995827918282078
  0.2999259298518078  0.5005117409253144  0.6996361675195696
  0.3001500328602443  0.5001876033800796  0.8999999999999986
  0.2999854238350590  0.7000000000000028  0.1000393642891576
  0.2998632157173245  0.7000000000000028  0.2999056963272465
  0.2998632157173245  0.7000000000000028  0.5000943036727508
  0.2999854238350590  0.7000000000000028  0.6999606357108465
  0.2997384444331268  0.7000000000000028  0.8999999999999986
  0.2999259298518078  0.8994882590746842  0.1003638324804347
  0.2995740448178537  0.8992443871384116  0.3004172081717894
  0.2995740448178537  0.8992443871384116  0.4995827918282078
  0.2999259298518078  0.8994882590746842  0.6996361675195696
  0.3001500328602443  0.8998123966199190  0.8999999999999986
  0.5031607086210357  0.0968392913789658  0.1045451057664807
  0.5005273949154377  0.0994726050845635  0.3010971102878496
  0.5005273949154377  0.0994726050845635  0.4989028897121476
  0.5031607086210357  0.0968392913789658  0.6954548942335237
  0.4999191785239452  0.1000808214760563  0.8999999999999986
  0.5031607086210357  0.3031607086210327  0.1045451057664807
  0.5005273949154377  0.3005273949154351  0.3010971102878496
  0.5005273949154377  0.3005273949154351  0.4989028897121476
  0.5031607086210357  0.3031607086210327  0.6954548942335237
  0.4999191785239452  0.2999191785239422  0.8999999999999986
  0.5000740701481891  0.5005117409253144  0.1003638324804347
  0.5004259551821439  0.5007556128615869  0.3004172081717894
  0.5004259551821439  0.5007556128615869  0.4995827918282078
  0.5000740701481891  0.5005117409253144  0.6996361675195696
  0.4998499671397529  0.5001876033800796  0.8999999999999986
  0.5000145761649382  0.7000000000000028  0.1000393642891576
  0.5001367842826727  0.7000000000000028  0.2999056963272465
  0.5001367842826727  0.7000000000000028  0.5000943036727508
  0.5000145761649382  0.7000000000000028  0.6999606357108465
  0.5002615555668705  0.7000000000000028  0.8999999999999986
  0.5000740701481891  0.8994882590746842  0.1003638324804347
  0.5004259551821439  0.8992443871384116  0.3004172081717894
  0.5004259551821439  0.8992443871384116  0.4995827918282078
  0.5000740701481891  0.8994882590746842  0.6996361675195696
  0.4998499671397529  0.8998123966199190  0.8999999999999986
  0.7005117409253172  0.0999259298518122  0.1003638324804347
  0.7007556128615898  0.0995740448178578  0.3004172081717894
  0.7007556128615898  0.0995740448178578  0.4995827918282078
  0.7005117409253172  0.0999259298518122  0.6996361675195696
  0.7001876033800825  0.1001500328602486  0.8999999999999986
  0.7005117409253172  0.3000740701481865  0.1003638324804347
  0.7007556128615898  0.3004259551821406  0.3004172081717894
  0.7007556128615898  0.3004259551821406  0.4995827918282078
  0.7005117409253172  0.3000740701481865  0.6996361675195696
  0.7001876033800825  0.2998499671397500  0.8999999999999986
  0.7002158201892812  0.5002158201892783  0.1000303091808491
  0.7007226397265761  0.5007226397265733  0.3002384950253033
  0.7007226397265761  0.5007226397265733  0.4997615049746938
  0.7002158201892812  0.5002158201892783  0.6999696908191553
  0.6996740034754914  0.4996740034754887  0.8999999999999986
  0.7002130654562139  0.7000000000000028  0.0997870568473872
  0.7003174661485991  0.7000000000000028  0.2997790688900682
  0.7003174661485991  0.7000000000000028  0.5002209311099290
  0.7002130654562139  0.7000000000000028  0.7002129431526171
  0.6998716039003504  0.7000000000000028  0.8999999999999986
  0.7002158201892812  0.8997841798107202  0.1000303091808491
  0.7007226397265761  0.8992773602734253  0.3002384950253033
  0.7007226397265761  0.8992773602734253  0.4997615049746938
  0.7002158201892812  0.8997841798107202  0.6999696908191553
  0.6996740034754914  0.9003259965245101  0.8999999999999986
  0.8999999999999986  0.0999854238350632  0.1000393642891576
  0.8999999999999986  0.0998632157173288  0.2999056963272465
  0.8999999999999986  0.0998632157173288  0.5000943036727508
  0.8999999999999986  0.0999854238350632  0.6999606357108465
  0.8999999999999986  0.0997384444331311  0.8999999999999986
  0.8999999999999986  0.3000145761649353  0.1000393642891576
  0.8999999999999986  0.3001367842826698  0.2999056963272465
  0.8999999999999986  0.3001367842826698  0.5000943036727508
  0.8999999999999986  0.3000145761649353  0.6999606357108465
  0.8999999999999986  0.3002615555668675  0.8999999999999986
  0.8999999999999986  0.5002130654562110  0.0997870568473872
  0.8999999999999986  0.5003174661485963  0.2997790688900682
  0.8999999999999986  0.5003174661485963  0.5002209311099290
  0.8999999999999986  0.5002130654562110  0.7002129431526171
  0.8999999999999986  0.4998716039003476  0.8999999999999986
  0.8999999999999986  0.7000000000000028  0.0997254659823972
  0.8999999999999986  0.7000000000000028  0.2996687446608324
  0.8999999999999986  0.7000000000000028  0.5003312553391644
  0.8999999999999986  0.7000000000000028  0.7002745340176071
  0.8999999999999986  0.7000000000000028  0.8999999999999986
  0.8999999999999986  0.8997869345437876  0.0997870568473872
  0.8999999999999986  0.8996825338514023  0.2997790688900682
  0.8999999999999986  0.8996825338514023  0.5002209311099290
  0.8999999999999986  0.8997869345437876  0.7002129431526171
  0.8999999999999986  0.9001283960996510  0.8999999999999986
  0.3999999999999986  0.2000000000000028  0.8999999999999986
 
  0.00000000E+00  0.00000000E+00  0.00000000E+00
  0.00000000E+00  0.00000000E+00  0.00000000E+00
  0.00000000E+00  0.00000000E+00  0.00000000E+00
  0.00000000E+00  0.00000000E+00  0.00000000E+00
  0.00000000E+00  0.00000000E+00  0.00000000E+00
  0.00000000E+00  0.00000000E+00  0.00000000E+00
  0.00000000E+00  0.00000000E+00  0.00000000E+00
  0.00000000E+00  0.00000000E+00  0.00000000E+00
  0.00000000E+00  0.00000000E+00  0.00000000E+00
  0.00000000E+00  0.00000000E+00  0.00000000E+00
  0.00000000E+00  0.00000000E+00  0.00000000E+00
  0.00000000E+00  0.00000000E+00  0.00000000E+00
  0.00000000E+00  0.00000000E+00  0.00000000E+00
  0.00000000E+00  0.00000000E+00  0.00000000E+00
  0.00000000E+00  0.00000000E+00  0.00000000E+00
  0.00000000E+00  0.00000000E+00  0.00000000E+00
  0.00000000E+00  0.00000000E+00  0.00000000E+00
  0.00000000E+00  0.00000000E+00  0.00000000E+00
  0.00000000E+00  0.00000000E+00  0.00000000E+00
  0.00000000E+00  0.00000000E+00  0.00000000E+00
  0.00000000E+00  0.00000000E+00  0.00000000E+00
  0.00000000E+00  0.00000000E+00  0.00000000E+00
  0.00000000E+00  0.00000000E+00  0.00000000E+00
  0.00000000E+00  0.00000000E+00  0.00000000E+00
  0.00000000E+00  0.00000000E+00  0.00000000E+00
  0.00000000E+00  0.00000000E+00  0.00000000E+00
  0.00000000E+00  0.00000000E+00  0.00000000E+00
  0.00000000E+00  0.00000000E+00  0.00000000E+00
  0.00000000E+00  0.00000000E+00  0.00000000E+00
  0.00000000E+00  0.00000000E+00  0.00000000E+00
  0.00000000E+00  0.00000000E+00  0.00000000E+00
  0.00000000E+00  0.00000000E+00  0.00000000E+00
  0.00000000E+00  0.00000000E+00  0.00000000E+00
  0.00000000E+00  0.00000000E+00  0.00000000E+00
  0.00000000E+00  0.00000000E+00  0.00000000E+00
  0.00000000E+00  0.00000000E+00  0.00000000E+00
  0.00000000E+00  0.00000000E+00  0.00000000E+00
  0.00000000E+00  0.00000000E+00  0.00000000E+00
  0.00000000E+00  0.00000000E+00  0.00000000E+00
  0.00000000E+00  0.00000000E+00  0.00000000E+00
  0.00000000E+00  0.00000000E+00  0.00000000E+00
  0.00000000E+00  0.00000000E+00  0.00000000E+00
  0.00000000E+00  0.00000000E+00  0.00000000E+00
  0.00000000E+00  0.00000000E+00  0.00000000E+00
  0.00000000E+00  0.00000000E+00  0.00000000E+00
  0.00000000E+00  0.00000000E+00  0.00000000E+00
  0.00000000E+00  0.00000000E+00  0.00000000E+00
  0.00000000E+00  0.00000000E+00  0.00000000E+00
  0.00000000E+00  0.00000000E+00  0.00000000E+00
  0.00000000E+00  0.00000000E+00  0.00000000E+00
  0.00000000E+00  0.00000000E+00  0.00000000E+00
  0.00000000E+00  0.00000000E+00  0.00000000E+00
  0.00000000E+00  0.00000000E+00  0.00000000E+00
  0.00000000E+00  0.00000000E+00  0.00000000E+00
  0.00000000E+00  0.00000000E+00  0.00000000E+00
  0.00000000E+00  0.00000000E+00  0.00000000E+00
  0.00000000E+00  0.00000000E+00  0.00000000E+00
  0.00000000E+00  0.00000000E+00  0.00000000E+00
  0.00000000E+00  0.00000000E+00  0.00000000E+00
  0.00000000E+00  0.00000000E+00  0.00000000E+00
  0.00000000E+00  0.00000000E+00  0.00000000E+00
  0.00000000E+00  0.00000000E+00  0.00000000E+00
  0.00000000E+00  0.00000000E+00  0.00000000E+00
  0.00000000E+00  0.00000000E+00  0.00000000E+00
  0.00000000E+00  0.00000000E+00  0.00000000E+00
  0.00000000E+00  0.00000000E+00  0.00000000E+00
  0.00000000E+00  0.00000000E+00  0.00000000E+00
  0.00000000E+00  0.00000000E+00  0.00000000E+00
  0.00000000E+00  0.00000000E+00  0.00000000E+00
  0.00000000E+00  0.00000000E+00  0.00000000E+00
  0.00000000E+00  0.00000000E+00  0.00000000E+00
  0.00000000E+00  0.00000000E+00  0.00000000E+00
  0.00000000E+00  0.00000000E+00  0.00000000E+00
  0.00000000E+00  0.00000000E+00  0.00000000E+00
  0.00000000E+00  0.00000000E+00  0.00000000E+00
  0.00000000E+00  0.00000000E+00  0.00000000E+00
  0.00000000E+00  0.00000000E+00  0.00000000E+00
  0.00000000E+00  0.00000000E+00  0.00000000E+00
  0.00000000E+00  0.00000000E+00  0.00000000E+00
  0.00000000E+00  0.00000000E+00  0.00000000E+00
  0.00000000E+00  0.00000000E+00  0.00000000E+00
  0.00000000E+00  0.00000000E+00  0.00000000E+00
  0.00000000E+00  0.00000000E+00  0.00000000E+00
  0.00000000E+00  0.00000000E+00  0.00000000E+00
  0.00000000E+00  0.00000000E+00  0.00000000E+00
  0.00000000E+00  0.00000000E+00  0.00000000E+00
  0.00000000E+00  0.00000000E+00  0.00000000E+00
  0.00000000E+00  0.00000000E+00  0.00000000E+00
  0.00000000E+00  0.00000000E+00  0.00000000E+00
  0.00000000E+00  0.00000000E+00  0.00000000E+00
  0.00000000E+00  0.00000000E+00  0.00000000E+00
  0.00000000E+00  0.00000000E+00  0.00000000E+00
  0.00000000E+00  0.00000000E+00  0.00000000E+00
  0.00000000E+00  0.00000000E+00  0.00000000E+00
  0.00000000E+00  0.00000000E+00  0.00000000E+00
  0.00000000E+00  0.00000000E+00  0.00000000E+00
  0.00000000E+00  0.00000000E+00  0.00000000E+00
  0.00000000E+00  0.00000000E+00  0.00000000E+00
  0.00000000E+00  0.00000000E+00  0.00000000E+00
  0.00000000E+00  0.00000000E+00  0.00000000E+00
  0.00000000E+00  0.00000000E+00  0.00000000E+00
  0.00000000E+00  0.00000000E+00  0.00000000E+00
  0.00000000E+00  0.00000000E+00  0.00000000E+00
  0.00000000E+00  0.00000000E+00  0.00000000E+00
  0.00000000E+00  0.00000000E+00  0.00000000E+00
  0.00000000E+00  0.00000000E+00  0.00000000E+00
  0.00000000E+00  0.00000000E+00  0.00000000E+00
  0.00000000E+00  0.00000000E+00  0.00000000E+00
  0.00000000E+00  0.00000000E+00  0.00000000E+00
  0.00000000E+00  0.00000000E+00  0.00000000E+00
  0.00000000E+00  0.00000000E+00  0.00000000E+00
  0.00000000E+00  0.00000000E+00  0.00000000E+00
  0.00000000E+00  0.00000000E+00  0.00000000E+00
  0.00000000E+00  0.00000000E+00  0.00000000E+00
  0.00000000E+00  0.00000000E+00  0.00000000E+00
  0.00000000E+00  0.00000000E+00  0.00000000E+00
  0.00000000E+00  0.00000000E+00  0.00000000E+00
  0.00000000E+00  0.00000000E+00  0.00000000E+00
  0.00000000E+00  0.00000000E+00  0.00000000E+00
  0.00000000E+00  0.00000000E+00  0.00000000E+00
  0.00000000E+00  0.00000000E+00  0.00000000E+00
  0.00000000E+00  0.00000000E+00  0.00000000E+00
  0.00000000E+00  0.00000000E+00  0.00000000E+00
  0.00000000E+00  0.00000000E+00  0.00000000E+00
  0.00000000E+00  0.00000000E+00  0.00000000E+00
  0.00000000E+00  0.00000000E+00  0.00000000E+00
  0.00000000E+00  0.00000000E+00  0.00000000E+00
  0.00000000E+00  0.00000000E+00  0.00000000E+00
  0.00000000E+00  0.00000000E+00  0.00000000E+00
  0.00000000E+00  0.00000000E+00  0.00000000E+00
  0.00000000E+00  0.00000000E+00  0.00000000E+00
  0.00000000E+00  0.00000000E+00  0.00000000E+00
  0.00000000E+00  0.00000000E+00  0.00000000E+00
  0.00000000E+00  0.00000000E+00  0.00000000E+00
  0.00000000E+00  0.00000000E+00  0.00000000E+00
  0.00000000E+00  0.00000000E+00  0.00000000E+00
  0.00000000E+00  0.00000000E+00  0.00000000E+00
  0.00000000E+00  0.00000000E+00  0.00000000E+00
  0.00000000E+00  0.00000000E+00  0.00000000E+00
  0.00000000E+00  0.00000000E+00  0.00000000E+00
  0.00000000E+00  0.00000000E+00  0.00000000E+00
  0.00000000E+00  0.00000000E+00  0.00000000E+00
  0.00000000E+00  0.00000000E+00  0.00000000E+00
  0.00000000E+00  0.00000000E+00  0.00000000E+00
  0.00000000E+00  0.00000000E+00  0.00000000E+00
  0.00000000E+00  0.00000000E+00  0.00000000E+00
  0.00000000E+00  0.00000000E+00  0.00000000E+00
  0.00000000E+00  0.00000000E+00  0.00000000E+00
  0.00000000E+00  0.00000000E+00  0.00000000E+00
  0.00000000E+00  0.00000000E+00  0.00000000E+00
  0.00000000E+00  0.00000000E+00  0.00000000E+00
  0.00000000E+00  0.00000000E+00  0.00000000E+00
  0.00000000E+00  0.00000000E+00  0.00000000E+00
  0.00000000E+00  0.00000000E+00  0.00000000E+00
  0.00000000E+00  0.00000000E+00  0.00000000E+00
  0.00000000E+00  0.00000000E+00  0.00000000E+00
  0.00000000E+00  0.00000000E+00  0.00000000E+00
  0.00000000E+00  0.00000000E+00  0.00000000E+00
  0.00000000E+00  0.00000000E+00  0.00000000E+00
  0.00000000E+00  0.00000000E+00  0.00000000E+00
  0.00000000E+00  0.00000000E+00  0.00000000E+00
  0.00000000E+00  0.00000000E+00  0.00000000E+00
  0.00000000E+00  0.00000000E+00  0.00000000E+00
  0.00000000E+00  0.00000000E+00  0.00000000E+00
  0.00000000E+00  0.00000000E+00  0.00000000E+00
  0.00000000E+00  0.00000000E+00  0.00000000E+00
  0.00000000E+00  0.00000000E+00  0.00000000E+00
  0.00000000E+00  0.00000000E+00  0.00000000E+00
  0.00000000E+00  0.00000000E+00  0.00000000E+00
  0.00000000E+00  0.00000000E+00  0.00000000E+00
  0.00000000E+00  0.00000000E+00  0.00000000E+00
  0.00000000E+00  0.00000000E+00  0.00000000E+00
  0.00000000E+00  0.00000000E+00  0.00000000E+00
  0.00000000E+00  0.00000000E+00  0.00000000E+00
  0.00000000E+00  0.00000000E+00  0.00000000E+00
  0.00000000E+00  0.00000000E+00  0.00000000E+00
  0.00000000E+00  0.00000000E+00  0.00000000E+00
  0.00000000E+00  0.00000000E+00  0.00000000E+00
  0.00000000E+00  0.00000000E+00  0.00000000E+00
  0.00000000E+00  0.00000000E+00  0.00000000E+00
  0.00000000E+00  0.00000000E+00  0.00000000E+00
  0.00000000E+00  0.00000000E+00  0.00000000E+00
  0.00000000E+00  0.00000000E+00  0.00000000E+00
  0.00000000E+00  0.00000000E+00  0.00000000E+00
  0.00000000E+00  0.00000000E+00  0.00000000E+00
  0.00000000E+00  0.00000000E+00  0.00000000E+00
  0.00000000E+00  0.00000000E+00  0.00000000E+00
  0.00000000E+00  0.00000000E+00  0.00000000E+00
  0.00000000E+00  0.00000000E+00  0.00000000E+00
  0.00000000E+00  0.00000000E+00  0.00000000E+00
  0.00000000E+00  0.00000000E+00  0.00000000E+00
  0.00000000E+00  0.00000000E+00  0.00000000E+00
  0.00000000E+00  0.00000000E+00  0.00000000E+00
  0.00000000E+00  0.00000000E+00  0.00000000E+00
  0.00000000E+00  0.00000000E+00  0.00000000E+00
  0.00000000E+00  0.00000000E+00  0.00000000E+00
  0.00000000E+00  0.00000000E+00  0.00000000E+00
  0.00000000E+00  0.00000000E+00  0.00000000E+00
  0.00000000E+00  0.00000000E+00  0.00000000E+00
  0.00000000E+00  0.00000000E+00  0.00000000E+00
  0.00000000E+00  0.00000000E+00  0.00000000E+00
  0.00000000E+00  0.00000000E+00  0.00000000E+00
  0.00000000E+00  0.00000000E+00  0.00000000E+00
  0.00000000E+00  0.00000000E+00  0.00000000E+00
  0.00000000E+00  0.00000000E+00  0.00000000E+00
  0.00000000E+00  0.00000000E+00  0.00000000E+00
  0.00000000E+00  0.00000000E+00  0.00000000E+00
  0.00000000E+00  0.00000000E+00  0.00000000E+00
  0.00000000E+00  0.00000000E+00  0.00000000E+00
  0.00000000E+00  0.00000000E+00  0.00000000E+00
  0.00000000E+00  0.00000000E+00  0.00000000E+00
  0.00000000E+00  0.00000000E+00  0.00000000E+00
  0.00000000E+00  0.00000000E+00  0.00000000E+00
  0.00000000E+00  0.00000000E+00  0.00000000E+00
  0.00000000E+00  0.00000000E+00  0.00000000E+00
  0.00000000E+00  0.00000000E+00  0.00000000E+00
  0.00000000E+00  0.00000000E+00  0.00000000E+00
  0.00000000E+00  0.00000000E+00  0.00000000E+00
  0.00000000E+00  0.00000000E+00  0.00000000E+00
  0.00000000E+00  0.00000000E+00  0.00000000E+00
  0.00000000E+00  0.00000000E+00  0.00000000E+00
  0.00000000E+00  0.00000000E+00  0.00000000E+00
  0.00000000E+00  0.00000000E+00  0.00000000E+00
  0.00000000E+00  0.00000000E+00  0.00000000E+00
  0.00000000E+00  0.00000000E+00  0.00000000E+00
  0.00000000E+00  0.00000000E+00  0.00000000E+00
  0.00000000E+00  0.00000000E+00  0.00000000E+00
  0.00000000E+00  0.00000000E+00  0.00000000E+00
  0.00000000E+00  0.00000000E+00  0.00000000E+00
  0.00000000E+00  0.00000000E+00  0.00000000E+00
  0.00000000E+00  0.00000000E+00  0.00000000E+00
  0.00000000E+00  0.00000000E+00  0.00000000E+00
  0.00000000E+00  0.00000000E+00  0.00000000E+00
  0.00000000E+00  0.00000000E+00  0.00000000E+00
  0.00000000E+00  0.00000000E+00  0.00000000E+00
  0.00000000E+00  0.00000000E+00  0.00000000E+00
  0.00000000E+00  0.00000000E+00  0.00000000E+00
  0.00000000E+00  0.00000000E+00  0.00000000E+00
  0.00000000E+00  0.00000000E+00  0.00000000E+00
  0.00000000E+00  0.00000000E+00  0.00000000E+00
  0.00000000E+00  0.00000000E+00  0.00000000E+00
  0.00000000E+00  0.00000000E+00  0.00000000E+00
  0.00000000E+00  0.00000000E+00  0.00000000E+00
  0.00000000E+00  0.00000000E+00  0.00000000E+00
  0.00000000E+00  0.00000000E+00  0.00000000E+00
  0.00000000E+00  0.00000000E+00  0.00000000E+00
  0.00000000E+00  0.00000000E+00  0.00000000E+00
  0.00000000E+00  0.00000000E+00  0.00000000E+00
  0.00000000E+00  0.00000000E+00  0.00000000E+00
  0.00000000E+00  0.00000000E+00  0.00000000E+00
  0.00000000E+00  0.00000000E+00  0.00000000E+00
