New structure
1.0
    14.5   0.0  0.0
    0.0  14.5   0.0
    0.0  0.0  14.5 
   Ni Al  O
  125 125 1
Cartesian
  0.000000000000000E+000  0.000000000000000E+000  0.000000000000000E+000
  0.000000000000000E+000  0.000000000000000E+000   2.90000000000000     
  0.000000000000000E+000  0.000000000000000E+000   5.80000000000000     
  0.000000000000000E+000  0.000000000000000E+000   8.70000000000000     
  0.000000000000000E+000  0.000000000000000E+000   11.6000000000000     
  0.000000000000000E+000   2.90000000000000       0.000000000000000E+000
  0.000000000000000E+000   2.90000000000000        2.90000000000000     
  0.000000000000000E+000   2.90000000000000        5.80000000000000     
  0.000000000000000E+000   2.90000000000000        8.70000000000000     
  0.000000000000000E+000   2.90000000000000        11.6000000000000     
  0.000000000000000E+000   5.80000000000000       0.000000000000000E+000
  0.000000000000000E+000   5.80000000000000        2.90000000000000     
  0.000000000000000E+000   5.80000000000000        5.80000000000000     
  0.000000000000000E+000   5.80000000000000        8.70000000000000     
  0.000000000000000E+000   5.80000000000000        11.6000000000000     
  0.000000000000000E+000   8.70000000000000       0.000000000000000E+000
  0.000000000000000E+000   8.70000000000000        2.90000000000000     
  0.000000000000000E+000   8.70000000000000        5.80000000000000     
  0.000000000000000E+000   8.70000000000000        8.70000000000000     
  0.000000000000000E+000   8.70000000000000        11.6000000000000     
  0.000000000000000E+000   11.6000000000000       0.000000000000000E+000
  0.000000000000000E+000   11.6000000000000        2.90000000000000     
  0.000000000000000E+000   11.6000000000000        5.80000000000000     
  0.000000000000000E+000   11.6000000000000        8.70000000000000     
  0.000000000000000E+000   11.6000000000000        11.6000000000000     
   2.90000000000000       0.000000000000000E+000  0.000000000000000E+000
   2.90000000000000       0.000000000000000E+000   2.90000000000000     
   2.90000000000000       0.000000000000000E+000   5.80000000000000     
   2.90000000000000       0.000000000000000E+000   8.70000000000000     
   2.90000000000000       0.000000000000000E+000   11.6000000000000     
   2.90000000000000        2.90000000000000       0.000000000000000E+000
   2.90000000000000        2.90000000000000        2.90000000000000     
   2.90000000000000        2.90000000000000        5.80000000000000     
   2.90000000000000        2.90000000000000        8.70000000000000     
   2.90000000000000        2.90000000000000        11.6000000000000     
   2.90000000000000        5.80000000000000       0.000000000000000E+000
   2.90000000000000        5.80000000000000        2.90000000000000     
   2.90000000000000        5.80000000000000        5.80000000000000     
   2.90000000000000        5.80000000000000        8.70000000000000     
   2.90000000000000        5.80000000000000        11.6000000000000     
   2.90000000000000        8.70000000000000       0.000000000000000E+000
   2.90000000000000        8.70000000000000        2.90000000000000     
   2.90000000000000        8.70000000000000        5.80000000000000     
   2.90000000000000        8.70000000000000        8.70000000000000     
   2.90000000000000        8.70000000000000        11.6000000000000     
   2.90000000000000        11.6000000000000       0.000000000000000E+000
   2.90000000000000        11.6000000000000        2.90000000000000     
   2.90000000000000        11.6000000000000        5.80000000000000     
   2.90000000000000        11.6000000000000        8.70000000000000     
   2.90000000000000        11.6000000000000        11.6000000000000     
   5.80000000000000       0.000000000000000E+000  0.000000000000000E+000
   5.80000000000000       0.000000000000000E+000   2.90000000000000     
   5.80000000000000       0.000000000000000E+000   5.80000000000000     
   5.80000000000000       0.000000000000000E+000   8.70000000000000     
   5.80000000000000       0.000000000000000E+000   11.6000000000000     
   5.80000000000000        2.90000000000000       0.000000000000000E+000
   5.80000000000000        2.90000000000000        2.90000000000000     
   5.80000000000000        2.90000000000000        5.80000000000000     
   5.80000000000000        2.90000000000000        8.70000000000000     
   5.80000000000000        2.90000000000000        11.6000000000000     
   5.80000000000000        5.80000000000000       0.000000000000000E+000
   5.80000000000000        5.80000000000000        2.90000000000000     
   5.80000000000000        5.80000000000000        5.80000000000000     
   5.80000000000000        5.80000000000000        8.70000000000000     
   5.80000000000000        5.80000000000000        11.6000000000000     
   5.80000000000000        8.70000000000000       0.000000000000000E+000
   5.80000000000000        8.70000000000000        2.90000000000000     
   5.80000000000000        8.70000000000000        5.80000000000000     
   5.80000000000000        8.70000000000000        8.70000000000000     
   5.80000000000000        8.70000000000000        11.6000000000000     
   5.80000000000000        11.6000000000000       0.000000000000000E+000
   5.80000000000000        11.6000000000000        2.90000000000000     
   5.80000000000000        11.6000000000000        5.80000000000000     
   5.80000000000000        11.6000000000000        8.70000000000000     
   5.80000000000000        11.6000000000000        11.6000000000000     
   8.70000000000000       0.000000000000000E+000  0.000000000000000E+000
   8.70000000000000       0.000000000000000E+000   2.90000000000000     
   8.70000000000000       0.000000000000000E+000   5.80000000000000     
   8.70000000000000       0.000000000000000E+000   8.70000000000000     
   8.70000000000000       0.000000000000000E+000   11.6000000000000     
   8.70000000000000        2.90000000000000       0.000000000000000E+000
   8.70000000000000        2.90000000000000        2.90000000000000     
   8.70000000000000        2.90000000000000        5.80000000000000     
   8.70000000000000        2.90000000000000        8.70000000000000     
   8.70000000000000        2.90000000000000        11.6000000000000     
   8.70000000000000        5.80000000000000       0.000000000000000E+000
   8.70000000000000        5.80000000000000        2.90000000000000     
   8.70000000000000        5.80000000000000        5.80000000000000     
   8.70000000000000        5.80000000000000        8.70000000000000     
   8.70000000000000        5.80000000000000        11.6000000000000     
   8.70000000000000        8.70000000000000       0.000000000000000E+000
   8.70000000000000        8.70000000000000        2.90000000000000     
   8.70000000000000        8.70000000000000        5.80000000000000     
   8.70000000000000        8.70000000000000        8.70000000000000     
   8.70000000000000        8.70000000000000        11.6000000000000     
   8.70000000000000        11.6000000000000       0.000000000000000E+000
   8.70000000000000        11.6000000000000        2.90000000000000     
   8.70000000000000        11.6000000000000        5.80000000000000     
   8.70000000000000        11.6000000000000        8.70000000000000     
   8.70000000000000        11.6000000000000        11.6000000000000     
   11.6000000000000       0.000000000000000E+000  0.000000000000000E+000
   11.6000000000000       0.000000000000000E+000   2.90000000000000     
   11.6000000000000       0.000000000000000E+000   5.80000000000000     
   11.6000000000000       0.000000000000000E+000   8.70000000000000     
   11.6000000000000       0.000000000000000E+000   11.6000000000000     
   11.6000000000000        2.90000000000000       0.000000000000000E+000
   11.6000000000000        2.90000000000000        2.90000000000000     
   11.6000000000000        2.90000000000000        5.80000000000000     
   11.6000000000000        2.90000000000000        8.70000000000000     
   11.6000000000000        2.90000000000000        11.6000000000000     
   11.6000000000000        5.80000000000000       0.000000000000000E+000
   11.6000000000000        5.80000000000000        2.90000000000000     
   11.6000000000000        5.80000000000000        5.80000000000000     
   11.6000000000000        5.80000000000000        8.70000000000000     
   11.6000000000000        5.80000000000000        11.6000000000000     
   11.6000000000000        8.70000000000000       0.000000000000000E+000
   11.6000000000000        8.70000000000000        2.90000000000000     
   11.6000000000000        8.70000000000000        5.80000000000000     
   11.6000000000000        8.70000000000000        8.70000000000000     
   11.6000000000000        8.70000000000000        11.6000000000000     
   11.6000000000000        11.6000000000000       0.000000000000000E+000
   11.6000000000000        11.6000000000000        2.90000000000000     
   11.6000000000000        11.6000000000000        5.80000000000000     
   11.6000000000000        11.6000000000000        8.70000000000000     
   11.6000000000000        11.6000000000000        11.6000000000000     
   1.45000000000000        1.45000000000000        1.45000000000000     
   1.45000000000000        1.45000000000000        4.35000000000000     
   1.45000000000000        1.45000000000000        7.25000000000000     
   1.45000000000000        1.45000000000000        10.1500000000000     
   1.45000000000000        1.45000000000000        13.0500000000000     
   1.45000000000000        4.35000000000000        1.45000000000000     
   1.45000000000000        4.35000000000000        4.35000000000000     
   1.45000000000000        4.35000000000000        7.25000000000000     
   1.45000000000000        4.35000000000000        10.1500000000000     
   1.45000000000000        4.35000000000000        13.0500000000000     
   1.45000000000000        7.25000000000000        1.45000000000000     
   1.45000000000000        7.25000000000000        4.35000000000000     
   1.45000000000000        7.25000000000000        7.25000000000000     
   1.45000000000000        7.25000000000000        10.1500000000000     
   1.45000000000000        7.25000000000000        13.0500000000000     
   1.45000000000000        10.1500000000000        1.45000000000000     
   1.45000000000000        10.1500000000000        4.35000000000000     
   1.45000000000000        10.1500000000000        7.25000000000000     
   1.45000000000000        10.1500000000000        10.1500000000000     
   1.45000000000000        10.1500000000000        13.0500000000000     
   1.45000000000000        13.0500000000000        1.45000000000000     
   1.45000000000000        13.0500000000000        4.35000000000000     
   1.45000000000000        13.0500000000000        7.25000000000000     
   1.45000000000000        13.0500000000000        10.1500000000000     
   1.45000000000000        13.0500000000000        13.0500000000000     
   4.35000000000000        1.45000000000000        1.45000000000000     
   4.35000000000000        1.45000000000000        4.35000000000000     
   4.35000000000000        1.45000000000000        7.25000000000000     
   4.35000000000000        1.45000000000000        10.1500000000000     
   4.35000000000000        1.45000000000000        13.0500000000000     
   4.35000000000000        4.35000000000000        1.45000000000000     
   4.35000000000000        4.35000000000000        4.35000000000000     
   4.35000000000000        4.35000000000000        7.25000000000000     
   4.35000000000000        4.35000000000000        10.1500000000000     
   4.35000000000000        4.35000000000000        13.0500000000000     
   4.35000000000000        7.25000000000000        1.45000000000000     
   4.35000000000000        7.25000000000000        4.35000000000000     
   4.35000000000000        7.25000000000000        7.25000000000000     
   4.35000000000000        7.25000000000000        10.1500000000000     
   4.35000000000000        7.25000000000000        13.0500000000000     
   4.35000000000000        10.1500000000000        1.45000000000000     
   4.35000000000000        10.1500000000000        4.35000000000000     
   4.35000000000000        10.1500000000000        7.25000000000000     
   4.35000000000000        10.1500000000000        10.1500000000000     
   4.35000000000000        10.1500000000000        13.0500000000000     
   4.35000000000000        13.0500000000000        1.45000000000000     
   4.35000000000000        13.0500000000000        4.35000000000000     
   4.35000000000000        13.0500000000000        7.25000000000000     
   4.35000000000000        13.0500000000000        10.1500000000000     
   4.35000000000000        13.0500000000000        13.0500000000000     
   7.25000000000000        1.45000000000000        1.45000000000000     
   7.25000000000000        1.45000000000000        4.35000000000000     
   7.25000000000000        1.45000000000000        7.25000000000000     
   7.25000000000000        1.45000000000000        10.1500000000000     
   7.25000000000000        1.45000000000000        13.0500000000000     
   7.25000000000000        4.35000000000000        1.45000000000000     
   7.25000000000000        4.35000000000000        4.35000000000000     
   7.25000000000000        4.35000000000000        7.25000000000000     
   7.25000000000000        4.35000000000000        10.1500000000000     
   7.25000000000000        4.35000000000000        13.0500000000000     
   7.25000000000000        7.25000000000000        1.45000000000000     
   7.25000000000000        7.25000000000000        4.35000000000000     
   7.25000000000000        7.25000000000000        7.25000000000000     
   7.25000000000000        7.25000000000000        10.1500000000000     
   7.25000000000000        7.25000000000000        13.0500000000000     
   7.25000000000000        10.1500000000000        1.45000000000000     
   7.25000000000000        10.1500000000000        4.35000000000000     
   7.25000000000000        10.1500000000000        7.25000000000000     
   7.25000000000000        10.1500000000000        10.1500000000000     
   7.25000000000000        10.1500000000000        13.0500000000000     
   7.25000000000000        13.0500000000000        1.45000000000000     
   7.25000000000000        13.0500000000000        4.35000000000000     
   7.25000000000000        13.0500000000000        7.25000000000000     
   7.25000000000000        13.0500000000000        10.1500000000000     
   7.25000000000000        13.0500000000000        13.0500000000000     
   10.1500000000000        1.45000000000000        1.45000000000000     
   10.1500000000000        1.45000000000000        4.35000000000000     
   10.1500000000000        1.45000000000000        7.25000000000000     
   10.1500000000000        1.45000000000000        10.1500000000000     
   10.1500000000000        1.45000000000000        13.0500000000000     
   10.1500000000000        4.35000000000000        1.45000000000000     
   10.1500000000000        4.35000000000000        4.35000000000000     
   10.1500000000000        4.35000000000000        7.25000000000000     
   10.1500000000000        4.35000000000000        10.1500000000000     
   10.1500000000000        4.35000000000000        13.0500000000000     
   10.1500000000000        7.25000000000000        1.45000000000000     
   10.1500000000000        7.25000000000000        4.35000000000000     
   10.1500000000000        7.25000000000000        7.25000000000000     
   10.1500000000000        7.25000000000000        10.1500000000000     
   10.1500000000000        7.25000000000000        13.0500000000000     
   10.1500000000000        10.1500000000000        1.45000000000000     
   10.1500000000000        10.1500000000000        4.35000000000000     
   10.1500000000000        10.1500000000000        7.25000000000000     
   10.1500000000000        10.1500000000000        10.1500000000000     
   10.1500000000000        10.1500000000000        13.0500000000000     
   10.1500000000000        13.0500000000000        1.45000000000000     
   10.1500000000000        13.0500000000000        4.35000000000000     
   10.1500000000000        13.0500000000000        7.25000000000000     
   10.1500000000000        13.0500000000000        10.1500000000000     
   10.1500000000000        13.0500000000000        13.0500000000000     
   13.0500000000000        1.45000000000000        1.45000000000000     
   13.0500000000000        1.45000000000000        4.35000000000000     
   13.0500000000000        1.45000000000000        7.25000000000000     
   13.0500000000000        1.45000000000000        10.1500000000000     
   13.0500000000000        1.45000000000000        13.0500000000000     
   13.0500000000000        4.35000000000000        1.45000000000000     
   13.0500000000000        4.35000000000000        4.35000000000000     
   13.0500000000000        4.35000000000000        7.25000000000000     
   13.0500000000000        4.35000000000000        10.1500000000000     
   13.0500000000000        4.35000000000000        13.0500000000000     
   13.0500000000000        7.25000000000000        1.45000000000000     
   13.0500000000000        7.25000000000000        4.35000000000000     
   13.0500000000000        7.25000000000000        7.25000000000000     
   13.0500000000000        7.25000000000000        10.1500000000000     
   13.0500000000000        7.25000000000000        13.0500000000000     
   13.0500000000000        10.1500000000000        1.45000000000000     
   13.0500000000000        10.1500000000000        4.35000000000000     
   13.0500000000000        10.1500000000000        7.25000000000000     
   13.0500000000000        10.1500000000000        10.1500000000000     
   13.0500000000000        10.1500000000000        13.0500000000000     
   13.0500000000000        13.0500000000000        1.45000000000000     
   13.0500000000000        13.0500000000000        4.35000000000000     
   13.0500000000000        13.0500000000000        7.25000000000000     
   13.0500000000000        13.0500000000000        10.1500000000000     
   13.0500000000000        13.0500000000000        13.0500000000000     
   1.45 1.45 0
