New structure                           
    1.000000000000000     
     0.0000000000000000  -15.1462217587961998    0.0000000000000000
     0.0000000000000000   -7.5731108793980804  -13.1170128144700993
    29.0000000000000000    0.0000000000000000    0.0000000000000000
   Ni   O 
   252     2
Direct
  0.4429724924019400  0.6078290623392660  0.5209387116115605
  0.6162831245152338  0.4427862463032349  0.5149143720704510
  0.7794341316678688  0.2767044100652688  0.5160198574355670
  0.9445401028957791  0.1113900947533235  0.5160409770999929
  0.9450667661568560  0.2775399005392070  0.5161583694993827
  0.9448168038526333  0.4441551628326516  0.5159957730549504
  0.7785163937954795  0.6112532655752274  0.5158463555869881
  0.6116204793454463  0.7786077440178419  0.5158258947441322
  0.4446295834925544  0.9455170294400737  0.5159169475736178
  0.6113671384278545  0.9444427602767895  0.5159640069774232
  0.7775619261961760  0.9443145368239456  0.5159603777049717
  0.9423107118274955  0.7789819970942538  0.5158038062556410
  0.9432955400347131  0.6112013028535340  0.5158354435309279
  0.8331338131744994  0.6672376797852133  0.4474056003338729
  0.6670529508606881  0.8335731678167725  0.4474550269025845
  0.7222698934681713  0.8889636360673017  0.3793966674747440
  0.8888290147960092  0.7223718806812571  0.3793173586490370
  0.9439729558229829  0.7780222770639406  0.3112633111308310
  0.7777140402632526  0.9444644584598330  0.3114747248156569
  0.9443807800953461  0.9444793098595885  0.3114981674924665
  0.8887348469763670  0.8888636922082856  0.3793187710447600
  0.8327070220435696  0.8336417578149661  0.4474201941226323
  0.7776412512582566  0.7780636945379150  0.5159834590335737
  0.7792755695864849  0.4442992660957339  0.5159738900684078
  0.6672983854059809  0.5007163534642278  0.4474316911283981
  0.8334748471839835  0.3332502232695450  0.4477305110169814
  0.8888911960614488  0.3889175169410797  0.3796768367338724
  0.7222347998799573  0.5556347652686539  0.3795393117903980
  0.7776044752055120  0.6111006861622045  0.3115398832538049
  0.6112428351843073  0.7777038629918469  0.3113659985774898
  0.6666823195107637  0.8333383149598627  0.2435796613075694
  0.8332780707192731  0.6666905495637245  0.2436150039415843
  0.8889328638184463  0.7221998270603123  0.1757159647989121
  0.7222448588006001  0.8888583261738315  0.1758043803322843
  0.7778360077932700  0.9442969721507901  0.1074822340685665
  0.9442937673209175  0.7778636325390694  0.1074223153798000
  0.9445040521864617  0.9444590709979347  0.1075193137194353
  0.8889368168384899  0.8888313925314141  0.1757334264879738
  0.8331500550496886  0.8333331003840313  0.2435384824140929
  0.7777427911215392  0.7778087790280848  0.3115034363540792
  0.7221422950904856  0.7223181787937816  0.3794073078455397
  0.6665011891673966  0.6673012822924435  0.4475535001250662
  0.5551190512030867  0.7218279606767595  0.3799244028947722
  0.5004745320082755  0.8332965278359337  0.4475725158212023
  0.3335197685256125  0.8339975933168298  0.4475993394801525
  0.2757530123408343  0.7820724887289516  0.5150984447721204
  0.1097517168609866  0.9467833442670830  0.5159516180641576
  0.2774661740270415  0.9463812761822177  0.5159660323071736
  0.4443192540703454  0.7787379493599421  0.5159167351385362
  0.4977255460600615  0.6656964589106225  0.4503063533584540
  0.6113927603316688  0.6118980114861868  0.5157118542214458
  0.6111318142505884  0.9444667780104615  0.3115017487180683
  0.4443998544010723  0.9444571128284162  0.3115331832005337
  0.3889210709571658  0.8887352383959127  0.3795614637040790
  0.3896191550913169  0.7217440905476372  0.3801352592787979
  0.2220732733047225  0.7222288230183943  0.3797469185537296
  0.0554949523343684  0.8889606376093173  0.3794822866786204
 -0.0013787498147279  0.8338168071746020  0.4470788496765558
  0.1658924639290890  0.6675218663660601  0.4480479757711694
  0.2653306860127138  0.6187890386683337  0.5180115531555336
  0.1055038998168408  0.6129725020967909  0.5151544230231954
  0.2775616386084635  0.4429548309298236  0.5160910072539180
  0.4457369245877121  0.2757799064016592  0.5157971855891768
  0.6118753903559609  0.1095695861994565  0.5158346310486180
  0.6668046216613406  0.1659148981061672  0.4474223502059994
  0.8329689979050727  0.9996620878980382  0.4473694726827866
  0.8888163000240461  0.0555263225108168  0.3795637112717303
  0.7221198498603479  0.2223747920098426  0.3796204714309752
  0.7779012550625742  0.2777935759221802  0.3116178780449622
  0.6111019319857688  0.4443241420239630  0.3117613583988441
  0.6666833410722444  0.4999304354120967  0.2437182153376376
  0.4999669166992932  0.6666746480951700  0.2437346866789791
  0.5555587500707465  0.7221396884805186  0.1757334905399696
  0.3887432613095993  0.8888039167379009  0.1757550259914110
  0.3332349916360058  0.8332922410204481  0.2437064662304249
  0.2778617974412517  0.7777764608457697  0.3117626626188806
  0.1111309102769780  0.9445404592570007  0.3115618215326703
  0.2777114764313657  0.9444967197702063  0.3115955469303996
  0.2223528817162101  0.8888146252154310  0.3796404088823276
  0.1658348257280716  0.8340190051927727  0.4475027897006977
  0.1055823236543586  0.7829588013925345  0.5153474313172065
  0.9444816678239261  0.6111250208499646  0.3115427202284569
  0.9444247000003585  0.4444141261694867  0.3115937321982140
  0.9444501399618178  0.2777838345271054  0.3116388582589387
  0.9444213790045162  0.1111815896323878  0.3116021566081320
  0.8333093000412500  0.1666634274426119  0.2436424331065354
  0.6666446717883805  0.1667943161461456  0.2435745844338090
  0.4999512890982574  0.3333651511994312  0.2437968409052594
  0.5555256767814815  0.3889008671287294  0.1758094288941390
  0.3888194874116173  0.5555877900426776  0.1758349372264537
  0.4444352112673438  0.6111021973436592  0.1075971726799134
  0.6110991278219944  0.4444384305348435  0.1075433005473790
  0.7778601109157934  0.2778581245395331  0.1074415008644421
  0.7221746547684444  0.2223814611352825  0.1757765881623979
  0.7221992612656487  0.0556925670866618  0.1757320790685629
  0.8888797437490497  0.0556197913788964  0.1756924240287277
  0.8332627026581031  0.9999830281832435  0.2436038791508721
  0.7776275730820837  0.1112459262410696  0.3115376480578533
  0.6113114452273232  0.1109499894949411  0.3113280596941330
  0.5556165119762508  0.0556869197392755  0.3794121424495817
  0.5005356556465039  0.9999160306209668  0.4473715105665981
  0.3335274316818962  0.1665944462228857  0.4477038004781049
  0.1665692478500284  0.3331371833403315  0.4477119082293642
  0.9999870155908291  0.5001429499265380  0.4475675773054386
  0.0559533407431652  0.5552649410265085  0.3796087558287519
  0.2222442058115836  0.3889004446499648  0.3798729507848357
  0.2778586440891002  0.4443292050756510  0.3118351755682407
  0.1112966411194552  0.6110738578844070  0.3115974066974379
  0.1668492645463076  0.6665825173169553  0.2437591780469995
  0.0000530999710310  0.8332913414667640  0.2435963655582207
  0.0556806481578951  0.8887833533142141  0.1757075195870517
  0.2222771231026325  0.7221806132080169  0.1758263193760314
  0.2778378851042053  0.7778443298785591  0.1074825494955737
  0.1111629383140179  0.9443998613224059  0.1074991177579610
  0.2778374915553457  0.9442917643726600  0.1074478374508940
  0.4444130480087157  0.9443897463229747  0.1075456840354128
  0.6111408203538103  0.7776593096482425  0.1074468615673775
  0.7777158298250836  0.6110807821414418  0.1074892690796192
  0.7221788190415690  0.5555148994261584  0.1757710055857108
  0.8332925422433609  0.5000170326790140  0.2436443795494369
  0.8888137445229567  0.3888106802763795  0.1757456946231019
  0.8333431720692854  0.3333625979758612  0.2436980138232081
  0.7222349580832242  0.3888905795081452  0.1757811362041069
  0.6666849243906329  0.3333323069200455  0.2437192414618507
  0.6111670391036214  0.2777098138828214  0.3116310134295531
  0.5553896625980532  0.2225159775930034  0.3795866817039986
  0.4442758970715502  0.2779015456054741  0.3117551695336508
  0.3890866964149421  0.3889234078328923  0.3802778184605317
  0.4989571330813422  0.3356701309446016  0.4495692462058820
  0.3329453225630228  0.5011410042365059  0.4489844721025613
  0.3885473114626453  0.5556200334362384  0.3803593286384416
  0.4443025592473515  0.6109808939739091  0.3118361355590146
  0.2779367427908890  0.6109587438527788  0.3118937638602025
  0.3333170640429008  0.5000198514347514  0.2438272528345777
  0.1667419441966200  0.4999798776907808  0.2437233902639247
  0.0000036401773022  0.5000086585897191  0.2436163275702260
  0.1667101403880222  0.3333063423386057  0.2436778821690010
  0.2223326826735663  0.3888658492206535  0.1757897460049470
  0.3887353880747649  0.2224391215276273  0.1757707979776670
  0.5555021504469666  0.0556569432361374  0.1756851441068221
  0.5000369998096714 -0.0000058666258896  0.2435871837664448
  0.3333273772788906  0.1667207144198503  0.2436389722731776
  0.2777211577154659  0.2777947653043084  0.3116756998556729
  0.1111521890996976  0.2776218218753291  0.3115872686096222
  0.0555696406788144  0.2221767689710275  0.3796800624995819
  0.0000095704106087  0.1666235268814484  0.4477592228123201
  0.1667070673884138  0.0002018459397578  0.4476735181224720
  0.2223156332513011  0.0554904379389844  0.3796316680176949
  0.2776508911138139  0.1111785351892317  0.3115649546213929
  0.3889184155754715  0.0556371592472582  0.3796027198811794
  0.3885537030135395  0.2227476216874305  0.3797395468587792
  0.5002652821123549  0.1664684833213366  0.4474294824514186
  0.4446192297383493  0.1105143217646305  0.5159333339565115
  0.2773581856201921  0.1116622072917306  0.5160726162413674
  0.1108696025120415  0.2775597484901348  0.5161700851949004
  0.2774170633920486  0.2770431653291701  0.5160535574095079
  0.1105749493218253  0.4439255924308815  0.5159553675086131
  0.1666513480362007  0.5001702082674588  0.4479873330733369
  0.3332435231889325  0.3336359673803662  0.4481208779798437
  0.4999584627264027  0.4999919570574887  0.2437285373465301
  0.4442932875796234  0.4445151651753819  0.3118947432088133
  0.7221107044453815  0.0555953569274968  0.3793521059862120
  0.6669426685784713 -0.0004198393374694  0.4474196268248575
  0.8334872469901742  0.5003381240605520  0.4476455575230383
  0.8889314241619668  0.5556213780351763  0.3795721052320244
  0.4442784430616957  0.7778474009282941  0.1074474671081590
  0.3888361577097255  0.7222742005150428  0.1757985625043088
  0.3333085607391784  0.6666908514411608  0.2437915912976424
  0.1666905142150669  0.8333206086166584  0.2436871029656117
  0.1111786219238570  0.7776984508808735  0.3115052727193310
  0.0552622620178458  0.7224364015375827  0.3790618039607443
 -0.0011714513250502  0.6674513951167561  0.4469893684733491
  0.6111770595889811  0.6110891817019863  0.1074823790008912
  0.5555509943358240  0.5555534621660717  0.1757977746473449
  0.2223177665601464  0.8888273480583190  0.1757826139353739
  0.7778534347322097  0.4442690948021105  0.1074429769918643
  0.9445192409024487  0.4442692892831299  0.1075031898428043
  0.9445309825014311  0.6110354470451264  0.1075160371449160
  0.8888916157244625  0.5554856387307655  0.1756913925000314
  0.7221874576355787  0.7221346509885019  0.1757440414450782
  0.6665786728668264  0.6665643736447369  0.2435855714929490
  0.6111090712141868  0.6109896333309867  0.3116332547187455
  0.5552453635386175  0.5564334099163096  0.3800800389094711
  0.4995568305758225  0.5008722862260934  0.4482571437558528
  0.5551831774822485  0.3888621674889527  0.3800643855916312
  0.7221068081588579  0.3888925013071916  0.3797235019958601
  0.6667523822832967  0.3330535922295813  0.4477049056184701
  0.6138854705800643  0.2747140425695565  0.5157101507328559
  0.7789242109984785  0.1098206865635501  0.5158778465661827
  0.8332590997418531  0.1663863592644111  0.4476468494594061
  0.8889135117945846  0.2221732654509534  0.3796722113318996
  0.9443238134979671  0.2778343732953655  0.1074091809558064
  0.9444741823694958  0.1111807814824527  0.1074986791506995
  0.8888379254106438  0.2223636077325345  0.1757429865096677
  0.4999316925304607  0.8332781944567420  0.2436106118724083
  0.4442725118983040  0.7777663058412657  0.3116379278330427
  0.7778398353057934  0.7778651885845729  0.1074751333902256
  0.6111735131569703  0.9443589802803437  0.1075440905525177
  0.5555128356236910  0.8888484879702119  0.1757173067858826
  0.7777037037656156  0.1112004579379909  0.1074793551310927
  0.6111492665329910  0.1111787847775727  0.1074359951699813
  0.4442997462825777  0.2778628081447820  0.1074791582424889
  0.2778493590065413  0.4443125187360640  0.1074812890267609
  0.1111969705741616  0.6111211727060114  0.1074692831740546
  0.0556682910654855  0.5555206276251119  0.1757097804364812
  0.0556887555091259  0.7221458921236570  0.1757385446061498
  0.0001054545981789  0.6666107957980810  0.2436040339724864
  0.6111402255155689  0.2777339748054473  0.1075128891870459
  0.5555407648486396  0.2223070903036697  0.1757500861428966
  0.4999489686746271  0.1667972386181621  0.2436319717086504
  0.4443570778597534  0.1112632556107217  0.3115675061417432
  0.3887928805211703  0.3889238381202494  0.1758331202161424
  0.3333158591362468  0.3334428501760593  0.2437899895114350
  0.4444284013616224  0.4444561576476954  0.1076043718017058
  0.2777118984071907  0.6111392381950905  0.1075405634446258
  0.2222744117093118  0.5555500104961735  0.1758303934094242
  0.1112035376223806  0.7776533935756936  0.1074727197916143
  0.6666596516229255 -0.0000336583849923  0.2435615912635404
  0.7778780687947706  0.4442547227634015  0.3116344556745375
  0.1112219442690760  0.4443080710687846  0.3116149580022991
  0.0555219643417855  0.3888632862008301  0.3796576146748596
  0.0000021969756544  0.3333013796848251  0.4477510429762762
  0.1668078441810129  0.1665419348581038  0.4477208206001399
  0.1107431475215095  0.1119921558035695  0.5161709817035004
  0.5557273203648415  0.8888233305530407  0.3794238843606847
  0.2220303587810862  0.5556653166338995  0.3799629149793369
  0.2222263947426375  0.2221702177836884  0.3796345009398046
  0.3324004390151959  0.6672678316313625  0.4485847916918164
  0.3338272455938439  0.0000240356995948  0.4476430868987253
  0.4508639315219030  0.4382025888793263  0.5190774974351138
  0.1111458853819307  0.4444135513460376  0.1074920158970321
  0.1111622278663725  0.2776897871182233  0.1074223680739184
  0.0556092755712889  0.2221983580091202  0.1757304617488683
 -0.0000063364263386  0.1667170341404218  0.2436428558877418
  0.1666771228668382  0.0000439324751113  0.2436555360800526
  0.2221694726448064  0.0555823732132262  0.1757373531660621
  0.2776448025368084  0.1111720476788153  0.1074536864184684
  0.3886847418831033  0.0556702294845690  0.1756807239353554
  0.3333526514753911  0.9999480629265959  0.2436221054894068
  0.1667400904768124  0.1666324880011902  0.2435798945638181
  0.1111538261984157  0.1112212916498560  0.3115957390423920
  0.0555495525860797  0.0555343984819808  0.3796740550038935
  0.9995756189700216  0.0001267597827100  0.4475495634951597
  0.2778556856788333  0.2778633264560581  0.1074567201109747
  0.2221630511754140  0.2222529097344214  0.1757399056091923
  0.0556324783615212  0.3887762343720511  0.1757041365643348
  0.0000013200251865  0.3333088522484419  0.2436413228571593
  0.4444137599487162  0.1112000391548146  0.1075156374034794
  0.1111298689895507  0.1111627135609806  0.1074255820734456
  0.0556237447110127  0.0555725676332716  0.1757055653671714
  0.9999656401639123  0.0000093925520095  0.2436012974984430
  0.9428652072559944  0.9459003269144758  0.5158600790026714
  0.4193687134852719  0.5314521518946255  0.5670067041820824
  0.3120017570784376  0.5743953333853551  0.5758378112446839
 
  0.00000000E+00  0.00000000E+00  0.00000000E+00
  0.00000000E+00  0.00000000E+00  0.00000000E+00
  0.00000000E+00  0.00000000E+00  0.00000000E+00
  0.00000000E+00  0.00000000E+00  0.00000000E+00
  0.00000000E+00  0.00000000E+00  0.00000000E+00
  0.00000000E+00  0.00000000E+00  0.00000000E+00
  0.00000000E+00  0.00000000E+00  0.00000000E+00
  0.00000000E+00  0.00000000E+00  0.00000000E+00
  0.00000000E+00  0.00000000E+00  0.00000000E+00
  0.00000000E+00  0.00000000E+00  0.00000000E+00
  0.00000000E+00  0.00000000E+00  0.00000000E+00
  0.00000000E+00  0.00000000E+00  0.00000000E+00
  0.00000000E+00  0.00000000E+00  0.00000000E+00
  0.00000000E+00  0.00000000E+00  0.00000000E+00
  0.00000000E+00  0.00000000E+00  0.00000000E+00
  0.00000000E+00  0.00000000E+00  0.00000000E+00
  0.00000000E+00  0.00000000E+00  0.00000000E+00
  0.00000000E+00  0.00000000E+00  0.00000000E+00
  0.00000000E+00  0.00000000E+00  0.00000000E+00
  0.00000000E+00  0.00000000E+00  0.00000000E+00
  0.00000000E+00  0.00000000E+00  0.00000000E+00
  0.00000000E+00  0.00000000E+00  0.00000000E+00
  0.00000000E+00  0.00000000E+00  0.00000000E+00
  0.00000000E+00  0.00000000E+00  0.00000000E+00
  0.00000000E+00  0.00000000E+00  0.00000000E+00
  0.00000000E+00  0.00000000E+00  0.00000000E+00
  0.00000000E+00  0.00000000E+00  0.00000000E+00
  0.00000000E+00  0.00000000E+00  0.00000000E+00
  0.00000000E+00  0.00000000E+00  0.00000000E+00
  0.00000000E+00  0.00000000E+00  0.00000000E+00
  0.00000000E+00  0.00000000E+00  0.00000000E+00
  0.00000000E+00  0.00000000E+00  0.00000000E+00
  0.00000000E+00  0.00000000E+00  0.00000000E+00
  0.00000000E+00  0.00000000E+00  0.00000000E+00
  0.00000000E+00  0.00000000E+00  0.00000000E+00
  0.00000000E+00  0.00000000E+00  0.00000000E+00
  0.00000000E+00  0.00000000E+00  0.00000000E+00
  0.00000000E+00  0.00000000E+00  0.00000000E+00
  0.00000000E+00  0.00000000E+00  0.00000000E+00
  0.00000000E+00  0.00000000E+00  0.00000000E+00
  0.00000000E+00  0.00000000E+00  0.00000000E+00
  0.00000000E+00  0.00000000E+00  0.00000000E+00
  0.00000000E+00  0.00000000E+00  0.00000000E+00
  0.00000000E+00  0.00000000E+00  0.00000000E+00
  0.00000000E+00  0.00000000E+00  0.00000000E+00
  0.00000000E+00  0.00000000E+00  0.00000000E+00
  0.00000000E+00  0.00000000E+00  0.00000000E+00
  0.00000000E+00  0.00000000E+00  0.00000000E+00
  0.00000000E+00  0.00000000E+00  0.00000000E+00
  0.00000000E+00  0.00000000E+00  0.00000000E+00
  0.00000000E+00  0.00000000E+00  0.00000000E+00
  0.00000000E+00  0.00000000E+00  0.00000000E+00
  0.00000000E+00  0.00000000E+00  0.00000000E+00
  0.00000000E+00  0.00000000E+00  0.00000000E+00
  0.00000000E+00  0.00000000E+00  0.00000000E+00
  0.00000000E+00  0.00000000E+00  0.00000000E+00
  0.00000000E+00  0.00000000E+00  0.00000000E+00
  0.00000000E+00  0.00000000E+00  0.00000000E+00
  0.00000000E+00  0.00000000E+00  0.00000000E+00
  0.00000000E+00  0.00000000E+00  0.00000000E+00
  0.00000000E+00  0.00000000E+00  0.00000000E+00
  0.00000000E+00  0.00000000E+00  0.00000000E+00
  0.00000000E+00  0.00000000E+00  0.00000000E+00
  0.00000000E+00  0.00000000E+00  0.00000000E+00
  0.00000000E+00  0.00000000E+00  0.00000000E+00
  0.00000000E+00  0.00000000E+00  0.00000000E+00
  0.00000000E+00  0.00000000E+00  0.00000000E+00
  0.00000000E+00  0.00000000E+00  0.00000000E+00
  0.00000000E+00  0.00000000E+00  0.00000000E+00
  0.00000000E+00  0.00000000E+00  0.00000000E+00
  0.00000000E+00  0.00000000E+00  0.00000000E+00
  0.00000000E+00  0.00000000E+00  0.00000000E+00
  0.00000000E+00  0.00000000E+00  0.00000000E+00
  0.00000000E+00  0.00000000E+00  0.00000000E+00
  0.00000000E+00  0.00000000E+00  0.00000000E+00
  0.00000000E+00  0.00000000E+00  0.00000000E+00
  0.00000000E+00  0.00000000E+00  0.00000000E+00
  0.00000000E+00  0.00000000E+00  0.00000000E+00
  0.00000000E+00  0.00000000E+00  0.00000000E+00
  0.00000000E+00  0.00000000E+00  0.00000000E+00
  0.00000000E+00  0.00000000E+00  0.00000000E+00
  0.00000000E+00  0.00000000E+00  0.00000000E+00
  0.00000000E+00  0.00000000E+00  0.00000000E+00
  0.00000000E+00  0.00000000E+00  0.00000000E+00
  0.00000000E+00  0.00000000E+00  0.00000000E+00
  0.00000000E+00  0.00000000E+00  0.00000000E+00
  0.00000000E+00  0.00000000E+00  0.00000000E+00
  0.00000000E+00  0.00000000E+00  0.00000000E+00
  0.00000000E+00  0.00000000E+00  0.00000000E+00
  0.00000000E+00  0.00000000E+00  0.00000000E+00
  0.00000000E+00  0.00000000E+00  0.00000000E+00
  0.00000000E+00  0.00000000E+00  0.00000000E+00
  0.00000000E+00  0.00000000E+00  0.00000000E+00
  0.00000000E+00  0.00000000E+00  0.00000000E+00
  0.00000000E+00  0.00000000E+00  0.00000000E+00
  0.00000000E+00  0.00000000E+00  0.00000000E+00
  0.00000000E+00  0.00000000E+00  0.00000000E+00
  0.00000000E+00  0.00000000E+00  0.00000000E+00
  0.00000000E+00  0.00000000E+00  0.00000000E+00
  0.00000000E+00  0.00000000E+00  0.00000000E+00
  0.00000000E+00  0.00000000E+00  0.00000000E+00
  0.00000000E+00  0.00000000E+00  0.00000000E+00
  0.00000000E+00  0.00000000E+00  0.00000000E+00
  0.00000000E+00  0.00000000E+00  0.00000000E+00
  0.00000000E+00  0.00000000E+00  0.00000000E+00
  0.00000000E+00  0.00000000E+00  0.00000000E+00
  0.00000000E+00  0.00000000E+00  0.00000000E+00
  0.00000000E+00  0.00000000E+00  0.00000000E+00
  0.00000000E+00  0.00000000E+00  0.00000000E+00
  0.00000000E+00  0.00000000E+00  0.00000000E+00
  0.00000000E+00  0.00000000E+00  0.00000000E+00
  0.00000000E+00  0.00000000E+00  0.00000000E+00
  0.00000000E+00  0.00000000E+00  0.00000000E+00
  0.00000000E+00  0.00000000E+00  0.00000000E+00
  0.00000000E+00  0.00000000E+00  0.00000000E+00
  0.00000000E+00  0.00000000E+00  0.00000000E+00
  0.00000000E+00  0.00000000E+00  0.00000000E+00
  0.00000000E+00  0.00000000E+00  0.00000000E+00
  0.00000000E+00  0.00000000E+00  0.00000000E+00
  0.00000000E+00  0.00000000E+00  0.00000000E+00
  0.00000000E+00  0.00000000E+00  0.00000000E+00
  0.00000000E+00  0.00000000E+00  0.00000000E+00
  0.00000000E+00  0.00000000E+00  0.00000000E+00
  0.00000000E+00  0.00000000E+00  0.00000000E+00
  0.00000000E+00  0.00000000E+00  0.00000000E+00
  0.00000000E+00  0.00000000E+00  0.00000000E+00
  0.00000000E+00  0.00000000E+00  0.00000000E+00
  0.00000000E+00  0.00000000E+00  0.00000000E+00
  0.00000000E+00  0.00000000E+00  0.00000000E+00
  0.00000000E+00  0.00000000E+00  0.00000000E+00
  0.00000000E+00  0.00000000E+00  0.00000000E+00
  0.00000000E+00  0.00000000E+00  0.00000000E+00
  0.00000000E+00  0.00000000E+00  0.00000000E+00
  0.00000000E+00  0.00000000E+00  0.00000000E+00
  0.00000000E+00  0.00000000E+00  0.00000000E+00
  0.00000000E+00  0.00000000E+00  0.00000000E+00
  0.00000000E+00  0.00000000E+00  0.00000000E+00
  0.00000000E+00  0.00000000E+00  0.00000000E+00
  0.00000000E+00  0.00000000E+00  0.00000000E+00
  0.00000000E+00  0.00000000E+00  0.00000000E+00
  0.00000000E+00  0.00000000E+00  0.00000000E+00
  0.00000000E+00  0.00000000E+00  0.00000000E+00
  0.00000000E+00  0.00000000E+00  0.00000000E+00
  0.00000000E+00  0.00000000E+00  0.00000000E+00
  0.00000000E+00  0.00000000E+00  0.00000000E+00
  0.00000000E+00  0.00000000E+00  0.00000000E+00
  0.00000000E+00  0.00000000E+00  0.00000000E+00
  0.00000000E+00  0.00000000E+00  0.00000000E+00
  0.00000000E+00  0.00000000E+00  0.00000000E+00
  0.00000000E+00  0.00000000E+00  0.00000000E+00
  0.00000000E+00  0.00000000E+00  0.00000000E+00
  0.00000000E+00  0.00000000E+00  0.00000000E+00
  0.00000000E+00  0.00000000E+00  0.00000000E+00
  0.00000000E+00  0.00000000E+00  0.00000000E+00
  0.00000000E+00  0.00000000E+00  0.00000000E+00
  0.00000000E+00  0.00000000E+00  0.00000000E+00
  0.00000000E+00  0.00000000E+00  0.00000000E+00
  0.00000000E+00  0.00000000E+00  0.00000000E+00
  0.00000000E+00  0.00000000E+00  0.00000000E+00
  0.00000000E+00  0.00000000E+00  0.00000000E+00
  0.00000000E+00  0.00000000E+00  0.00000000E+00
  0.00000000E+00  0.00000000E+00  0.00000000E+00
  0.00000000E+00  0.00000000E+00  0.00000000E+00
  0.00000000E+00  0.00000000E+00  0.00000000E+00
  0.00000000E+00  0.00000000E+00  0.00000000E+00
  0.00000000E+00  0.00000000E+00  0.00000000E+00
  0.00000000E+00  0.00000000E+00  0.00000000E+00
  0.00000000E+00  0.00000000E+00  0.00000000E+00
  0.00000000E+00  0.00000000E+00  0.00000000E+00
  0.00000000E+00  0.00000000E+00  0.00000000E+00
  0.00000000E+00  0.00000000E+00  0.00000000E+00
  0.00000000E+00  0.00000000E+00  0.00000000E+00
  0.00000000E+00  0.00000000E+00  0.00000000E+00
  0.00000000E+00  0.00000000E+00  0.00000000E+00
  0.00000000E+00  0.00000000E+00  0.00000000E+00
  0.00000000E+00  0.00000000E+00  0.00000000E+00
  0.00000000E+00  0.00000000E+00  0.00000000E+00
  0.00000000E+00  0.00000000E+00  0.00000000E+00
  0.00000000E+00  0.00000000E+00  0.00000000E+00
  0.00000000E+00  0.00000000E+00  0.00000000E+00
  0.00000000E+00  0.00000000E+00  0.00000000E+00
  0.00000000E+00  0.00000000E+00  0.00000000E+00
  0.00000000E+00  0.00000000E+00  0.00000000E+00
  0.00000000E+00  0.00000000E+00  0.00000000E+00
  0.00000000E+00  0.00000000E+00  0.00000000E+00
  0.00000000E+00  0.00000000E+00  0.00000000E+00
  0.00000000E+00  0.00000000E+00  0.00000000E+00
  0.00000000E+00  0.00000000E+00  0.00000000E+00
  0.00000000E+00  0.00000000E+00  0.00000000E+00
  0.00000000E+00  0.00000000E+00  0.00000000E+00
  0.00000000E+00  0.00000000E+00  0.00000000E+00
  0.00000000E+00  0.00000000E+00  0.00000000E+00
  0.00000000E+00  0.00000000E+00  0.00000000E+00
  0.00000000E+00  0.00000000E+00  0.00000000E+00
  0.00000000E+00  0.00000000E+00  0.00000000E+00
  0.00000000E+00  0.00000000E+00  0.00000000E+00
  0.00000000E+00  0.00000000E+00  0.00000000E+00
  0.00000000E+00  0.00000000E+00  0.00000000E+00
  0.00000000E+00  0.00000000E+00  0.00000000E+00
  0.00000000E+00  0.00000000E+00  0.00000000E+00
  0.00000000E+00  0.00000000E+00  0.00000000E+00
  0.00000000E+00  0.00000000E+00  0.00000000E+00
  0.00000000E+00  0.00000000E+00  0.00000000E+00
  0.00000000E+00  0.00000000E+00  0.00000000E+00
  0.00000000E+00  0.00000000E+00  0.00000000E+00
  0.00000000E+00  0.00000000E+00  0.00000000E+00
  0.00000000E+00  0.00000000E+00  0.00000000E+00
  0.00000000E+00  0.00000000E+00  0.00000000E+00
  0.00000000E+00  0.00000000E+00  0.00000000E+00
  0.00000000E+00  0.00000000E+00  0.00000000E+00
  0.00000000E+00  0.00000000E+00  0.00000000E+00
  0.00000000E+00  0.00000000E+00  0.00000000E+00
  0.00000000E+00  0.00000000E+00  0.00000000E+00
  0.00000000E+00  0.00000000E+00  0.00000000E+00
  0.00000000E+00  0.00000000E+00  0.00000000E+00
  0.00000000E+00  0.00000000E+00  0.00000000E+00
  0.00000000E+00  0.00000000E+00  0.00000000E+00
  0.00000000E+00  0.00000000E+00  0.00000000E+00
  0.00000000E+00  0.00000000E+00  0.00000000E+00
  0.00000000E+00  0.00000000E+00  0.00000000E+00
  0.00000000E+00  0.00000000E+00  0.00000000E+00
  0.00000000E+00  0.00000000E+00  0.00000000E+00
  0.00000000E+00  0.00000000E+00  0.00000000E+00
  0.00000000E+00  0.00000000E+00  0.00000000E+00
  0.00000000E+00  0.00000000E+00  0.00000000E+00
  0.00000000E+00  0.00000000E+00  0.00000000E+00
  0.00000000E+00  0.00000000E+00  0.00000000E+00
  0.00000000E+00  0.00000000E+00  0.00000000E+00
  0.00000000E+00  0.00000000E+00  0.00000000E+00
  0.00000000E+00  0.00000000E+00  0.00000000E+00
  0.00000000E+00  0.00000000E+00  0.00000000E+00
  0.00000000E+00  0.00000000E+00  0.00000000E+00
  0.00000000E+00  0.00000000E+00  0.00000000E+00
  0.00000000E+00  0.00000000E+00  0.00000000E+00
  0.00000000E+00  0.00000000E+00  0.00000000E+00
  0.00000000E+00  0.00000000E+00  0.00000000E+00
  0.00000000E+00  0.00000000E+00  0.00000000E+00
  0.00000000E+00  0.00000000E+00  0.00000000E+00
  0.00000000E+00  0.00000000E+00  0.00000000E+00
  0.00000000E+00  0.00000000E+00  0.00000000E+00
  0.00000000E+00  0.00000000E+00  0.00000000E+00
  0.00000000E+00  0.00000000E+00  0.00000000E+00
  0.00000000E+00  0.00000000E+00  0.00000000E+00
  0.00000000E+00  0.00000000E+00  0.00000000E+00
  0.00000000E+00  0.00000000E+00  0.00000000E+00
  0.00000000E+00  0.00000000E+00  0.00000000E+00
  0.00000000E+00  0.00000000E+00  0.00000000E+00
  0.00000000E+00  0.00000000E+00  0.00000000E+00
  0.00000000E+00  0.00000000E+00  0.00000000E+00
  0.00000000E+00  0.00000000E+00  0.00000000E+00
  0.00000000E+00  0.00000000E+00  0.00000000E+00
  0.00000000E+00  0.00000000E+00  0.00000000E+00
  0.00000000E+00  0.00000000E+00  0.00000000E+00
  0.00000000E+00  0.00000000E+00  0.00000000E+00
