New structure                           
   1.00000000000000     
     0.0000000000000000  -15.1462217587961998    0.0000000000000000
     0.0000000000000000   -7.5731108793980804  -13.1170128144700993
    29.0000000000000000    0.0000000000000000    0.0000000000000000
   Ni  O
   252 2
Cartesian
   15.1728000000000       -11.3977200000000       -8.03792000000000     
   15.0319000000000       -12.6774700000000       -5.79767000000000     
   15.0378400000000       -13.8943800000000       -3.62962000000000     
   15.0374100000000       -15.1472300000000       -1.45803000000000     
   15.0424100000000       -16.4127400000000       -3.64111000000000     
   15.0374100000000       -17.6705900000000       -5.82862000000000     
   15.0360000000000       -16.4175710000000       -8.01848000000000     
   15.0386200000000       -15.1496310000000       -10.2040900000000     
   15.0359990000000       -13.8908110000000       -12.3949600000000     
   15.0398400000000       -16.4097710000000       -12.3875000000000     
   15.0398400000000       -18.9314220000000       -12.3875000000000     
   15.0386200000000       -20.1915510000000       -10.2040890000000     
   15.0360000000000       -18.9236110000000       -8.01848000000000     
   13.0489500000000       -17.6705910000000       -8.74946000000000     
   13.0520800000000       -16.4079210000000       -10.9305700000000     
   11.0453000000000       -17.6705920000000       -11.6595700000000     
   11.0445400000000       -18.9349210000000       -9.47378000000000     
   9.03693000000000       -20.1953320000000       -10.2019090000000     
   9.03807000000000       -18.9327820000000       -12.3882890000000     
   9.03758000000000       -21.4567320000000       -12.3882490000000     
   11.0445400000000       -20.1957020000000       -11.6575190000000     
   13.0520800000000       -18.9332620000000       -10.9305690000000     
   15.0398400000000       -17.6705910000000       -10.2036890000000     
   15.0378400000000       -15.1635200000000       -5.82782000000000     
   13.0529200000000       -13.8884500000000       -6.55834000000000     
   13.0528700000000       -15.1493700000000       -4.37052000000000     
   11.0451000000000       -16.4079700000000       -5.10184000000000     
   11.0435300000000       -15.1449400000000       -7.28763000000000     
   9.03758000000000       -16.4085810000000       -8.01633000000000     
   9.03693000000000       -15.1458510000000       -10.2019100000000     
   7.03727100000000       -16.4085520000000       -10.9309200000000     
   7.03693100000000       -17.6705910000000       -8.74524000000000     
   5.03144100000000       -18.9338120000000       -9.47256000000000     
   5.03037100000000       -17.6705920000000       -11.6595700000000     
   3.03155100000000       -18.9331030000000       -12.3884700000000     
   3.03198100000000       -20.1956320000000       -10.2017390000000     
   3.03183100000000       -21.4576930000000       -12.3888490000000     
   5.03144100000000       -20.1962030000000       -11.6591000000000     
   7.03727100000000       -18.9326420000000       -10.9309200000000     
   9.03807000000000       -17.6705910000000       -10.2021200000000     
   11.0445400000000       -16.4062610000000       -9.47378000000000     
   13.0498390000000       -15.1426000000000       -8.74473000000000     
   11.0455290000000       -13.8815710000000       -9.47197000000000     
   13.0498390000000       -13.8822700000000       -10.9276800000000     
   13.0529180000000       -11.3617300000000       -10.9347500000000     
   15.0318980000000       -10.0974790000000       -10.2663410000000     
   15.0378370000000       -8.82834900000000       -12.4042510000000     
   15.0378380000000       -11.3666090000000       -12.4042510000000     
   15.0398190000000       -12.6305590000000       -10.2173210000000     
   13.0801590000000       -12.6093600000000       -8.73746100000000     
   15.0398200000000       -13.9015590000000       -8.01590100000000     
   9.03807000000000       -16.4084110000000       -12.3882900000000     
   9.03757900000000       -13.8844510000000       -12.3882500000000     
   11.0435290000000       -12.6215610000000       -11.6582600000000     
   11.0569890000000       -11.3594710000000       -9.47185100000000     
   11.0569880000000       -8.83549100000000       -9.47185100000000     
   11.0435280000000       -7.57340100000000       -11.6582600000000     
   13.0498380000000       -6.31269000000000       -10.9276810000000     
   13.0801580000000       -7.58560100000000       -8.73746000000000     
   15.1727980000000       -8.79724000000000       -8.03792100000000     
   15.0398180000000       -6.29341000000000       -8.01590100000000     
   15.0318980000000       -7.51750000000000       -5.79767100000000     
   15.0398190000000       -8.82649000000000       -3.62847100000000     
   15.0386190000000       -10.0974800000000       -1.45351100000000     
   13.0498400000000       -11.3578110000000       -2.18928100000000     
   13.0489510000000       -12.6177110000000       2.389000000000000E-003
   11.0434710000000       -13.8827820000000      -0.728001000000000     
   11.0435300000000       -12.6208710000000       -2.91580100000000     
   9.03799000000000       -13.8839320000000       -3.64384000000000     
   9.04360900000000       -12.6202820000000       -5.83069000000000     
   7.03936900000000       -13.8829520000000       -6.55822000000000     
   7.04276800000000       -12.6192020000000       -8.74315000000000     
   5.03307800000000       -13.8819830000000       -9.47220900000000     
   5.03130700000000       -12.6205830000000       -11.6588590000000     
   7.03936700000000       -11.3588720000000       -10.9300400000000     
   9.04360600000000       -10.0974810000000       -10.2003110000000     
   9.03798500000000       -8.83544100000000       -12.3880900000000     
   9.03798600000000       -11.3595310000000       -12.3880910000000     
   11.0460460000000       -10.0974800000000       -11.6591110000000     
   13.0529150000000       -8.83322900000000       -10.9347520000000     
   15.0398150000000       -7.56439800000000       -10.2173230000000     
   9.03758100000000       -18.9326010000000       -8.01633000000000     
   9.03831000000000       -17.6705910000000       -5.83031000000000     
   9.03829000000000       -16.4081510000000       -3.64376000000000     
   9.03831000000000       -15.1457710000000       -1.45718000000000     
   7.03742000000000       -13.8832310000000       -2.18600000000000     
   7.03842900000000       -11.3593920000000       -2.18741000000000     
   7.04276900000000       -10.0974810000000       -4.37538900000000     
   5.03331900000000       -11.3595920000000       -5.10184900000000     
   5.03462800000000       -10.0974820000000       -7.28722900000000     
   3.03388900000000       -11.3596320000000       -8.01592900000000     
   3.03152900000000       -12.6215520000000       -5.82995900000000     
   3.03035000000000       -13.8842420000000       -3.64339900000000     
   5.03131000000000       -12.6218820000000       -2.91633900000000     
   5.03144000000000       -11.3598810000000      -0.730029000000000     
   5.03121000000000       -13.8849920000000      -0.729269000000000     
   7.03693000000000       -12.6213710000000       2.810000000000000E-004
   9.03758000000000       -12.6216110000000       -1.45709900000000     
   9.03692900000000       -10.0974810000000       -1.45786900000000     
   11.0445390000000       -8.83670100000000      -0.730390000000000     
   13.0489490000000       -7.57726000000000       2.390000000000000E-003
   13.0495690000000       -6.31283100000000       -2.18215000000000     
   13.0528680000000       -5.04559100000000       -4.37052000000000     
   13.0495680000000       -3.78403100000000       -6.56217000000000     
   11.0435280000000       -5.05002100000000       -7.28763000000000     
   11.0460480000000       -6.31132100000000       -5.10129000000000     
   9.04360800000000       -7.57468100000000       -5.83069000000000     
   9.04037800000000       -6.31325100000000       -8.01496000000000     
   7.04276800000000       -7.57576200000000       -8.74315000000000     
   7.03842800000000       -6.31186200000000       -10.9299900000000     
   5.03130800000000       -7.57438200000000       -11.6588600000000     
   5.03331800000000       -8.83594200000000       -9.47294000000000     
   3.03152900000000       -10.0974830000000       -10.2017700000000     
   3.03034800000000       -8.83521300000000       -12.3885700000000     
   3.03034900000000       -11.3597520000000       -12.3885700000000     
   3.03183000000000       -13.8834930000000       -12.3888500000000     
   3.03198000000000       -15.1455630000000       -10.2017400000000     
   3.03183000000000       -16.4086220000000       -8.01520000000000     
   5.03131000000000       -15.1449820000000       -7.28648000000000     
   7.03742000000000       -16.4081520000000       -6.55929000000000     
   5.03096000000000       -16.4081120000000       -5.10062000000000     
   7.03778000000000       -15.1456210000000       -4.37268000000000     
   5.03070000000000       -13.8837520000000       -5.10123000000000     
   7.03937000000000       -12.6215610000000       -4.37343100000000     
   9.04038000000000       -11.3593710000000       -3.64612100000000     
   11.0455300000000       -10.0974810000000       -2.91774100000000     
   9.04037900000000       -8.83560100000000       -3.64612100000000     
   11.0569890000000       -8.83654000000000       -5.10200100000000     
   13.0801590000000       -10.0974800000000       -4.38676200000000     
   13.0765380000000       -8.83334000000000       -6.55738200000000     
   11.0744880000000       -10.0974800000000       -7.28723100000000     
   9.05142800000000       -11.3567710000000       -8.01428100000000     
   9.05142800000000       -8.83820100000000       -8.01428100000000     
   7.04392800000000       -8.83623100000000       -6.55905100000000     
   7.03936700000000       -6.31202100000000       -6.55822100000000     
   7.03741700000000       -3.78682100000000       -6.55929100000000     
   7.03777700000000       -5.04934100000000       -4.37268100000000     
   5.03069800000000       -6.31121200000000       -5.10123000000000     
   5.03130800000000       -7.57309100000000       -2.91634000000000     
   5.03143900000000       -8.83508100000000      -0.730030000000000     
   7.03692800000000       -7.57360000000000       2.790000000000000E-004
   7.03741800000000       -6.31173100000000       -2.18600100000000     
   9.03798800000000       -6.31103100000000       -3.64384200000000     
   9.03828700000000       -3.78682000000000       -3.64376200000000     
   11.0454570000000       -2.52437000000000       -2.91489300000000     
   13.0522470000000       -1.26208900000000       -2.18611400000000     
   13.0528670000000       -2.52436800000000      -3.643000000000000E-003
   11.0450980000000       -3.78701900000000      -0.727952000000000     
   9.03830800000000       -5.04919000000000       -1.45718100000000     
   11.0434680000000       -6.31218900000000      -0.728001000000000     
   11.0435280000000       -7.57410000000000       -2.91580100000000     
   13.0498380000000       -8.83714900000000       -2.18928100000000     
   15.0359980000000       -7.57071900000000       -1.44824200000000     
   15.0374080000000       -5.04772900000000       -1.45803300000000     
   15.0424070000000       -3.78221900000000       -3.64111300000000     
   15.0378370000000       -6.30057900000000       -3.62962200000000     
   15.0378360000000       -5.03144000000000       -5.82782300000000     
   13.0529160000000       -6.30652100000000       -6.55834200000000     
   13.0529170000000       -7.57076000000000       -4.36860100000000     
   7.04392800000000       -11.3587300000000       -6.55905000000000     
   9.05142800000000       -10.0974800000000       -5.83313000000000     
   11.0445400000000       -11.3582610000000      -0.730389000000000     
   13.0520800000000       -10.0974800000000      -5.590000000000000E-004
   13.0495700000000       -16.4109400000000       -6.56217000000000     
   11.0434700000000       -17.6705900000000       -7.28869000000000     
   3.03213900000000       -12.6218030000000       -10.2020800000000     
   5.03331900000000       -11.3590230000000       -9.47294000000000     
   7.04392900000000       -10.0974830000000       -8.74360000000000     
   7.03936900000000       -8.83609200000000       -10.9300400000000     
   9.04037900000000       -7.57513300000000       -10.2006100000000     
   11.0455290000000       -6.31339300000000       -9.47196900000000     
   13.0498380000000       -5.05236300000000       -8.74473000000000     
   3.03213900000000       -13.8839730000000       -8.01593000000000     
   5.03331900000000       -12.6211320000000       -7.28690000000000     
   5.03069900000000       -10.0974820000000       -11.6592400000000     
   3.03034900000000       -15.1465030000000       -5.82972000000000     
   3.03130900000000       -17.6705930000000       -5.82940000000000     
   3.03182900000000       -18.9325630000000       -8.01520000000000     
   5.03120900000000       -17.6705930000000       -7.28613000000000     
   5.03143900000000       -16.4073820000000       -9.47256000000000     
   7.03842900000000       -15.1450120000000       -8.74429000000000     
   9.04037900000000       -13.8817220000000       -8.01495900000000     
   11.0569890000000       -12.6204220000000       -7.28782900000000     
   13.0765390000000       -11.3616220000000       -6.55737900000000     
   11.0569890000000       -11.3584320000000       -5.10199900000000     
   11.0460490000000       -13.8836420000000       -5.10129000000000     
   13.0529190000000       -12.6242020000000       -4.36859900000000     
   15.0398190000000       -11.3684820000000       -3.62846900000000     
   15.0359990000000       -12.6242420000000       -1.44824000000000     
   13.0495690000000       -13.8821320000000       -2.18214900000000     
   11.0451000000000       -15.1453320000000       -2.91487900000000     
   3.03074000000000       -16.4087430000000       -3.64342000000000     
   3.03131000000000       -15.1465630000000       -1.45764000000000     
   5.03096000000000       -15.1464620000000       -2.91537100000000     
   7.03842900000000       -13.8831020000000       -10.9299900000000     
   9.04037900000000       -12.6198320000000       -10.2006090000000     
   3.03154900000000       -17.6705920000000       -10.2017500000000     
   3.03155000000000       -16.4080920000000       -12.3884700000000     
   5.03144000000000       -15.1449820000000       -11.6591000000000     
   3.03183000000000       -12.6226120000000       -1.45763900000000     
   3.03198000000000       -10.0974820000000       -1.45820900000000     
   3.03214000000000       -8.83531200000000       -3.64367900000000     
   3.03153000000000       -7.57341200000000       -5.82995900000000     
   3.03214000000000       -6.31099200000000       -8.01592900000000     
   5.03131000000000       -5.04998100000000       -7.28647900000000     
   5.03308000000000       -6.31299100000000       -9.47220900000000     
   7.03843000000000       -5.04995100000000       -8.74428800000000     
   3.03214000000000       -11.3596520000000       -3.64367900000000     
   5.03308000000000       -10.0974810000000       -2.91726900000000     
   7.03843000000000       -8.83557100000000       -2.18740900000000     
   9.03758000000000       -7.57335100000000       -1.45709900000000     
   5.03332000000000       -8.83537200000000       -5.10184900000000     
   7.03937000000000       -7.57341200000000       -4.37342900000000     
   3.03389000000000       -10.0974820000000       -5.82981900000000     
   3.03389000000000       -8.83533200000000       -8.01592900000000     
   5.03332000000000       -7.57383200000000       -7.28689900000000     
   3.03214000000000       -7.57316200000000       -10.2020790000000     
   7.03727000000000       -10.0974820000000       1.610000000000000E-004
   9.03799100000000       -15.1459820000000       -5.82976100000000     
   9.03798600000000       -5.04898900000000       -5.82976200000000     
   11.0450950000000       -3.78698700000000       -5.10184200000000     
   13.0522440000000       -2.52436500000000       -4.37245300000000     
   13.0522450000000       -3.78664300000000       -2.18611200000000     
   15.0424040000000       -2.52436100000000       -1.46245300000000     
   11.0445390000000       -15.1454810000000       -11.6575200000000     
   11.0569870000000       -7.57453900000000       -7.28783200000000     
   11.0450970000000       -5.04964000000000       -2.91488000000000     
   13.0765380000000       -10.0974790000000       -8.74693200000000     
   13.0495670000000       -5.05317800000000      -3.610000000000000E-004
   15.1727990000000       -10.0974810000000       -5.78583900000000     
   3.03035000000000       -5.04846200000000       -5.82971900000000     
   3.03074000000000       -3.78622100000000       -3.64342000000000     
   5.03199000000000       -2.52437100000000       -2.91489000000000     
   7.03780100000000       -1.26157100000000       -2.18582000000000     
   7.03778100000000       -2.52437100000000       6.900000000000000E-004
   5.03096000000000       -3.78603100000000      -0.728690000000000     
   3.03131000000000       -5.04840000000000       -1.45764000000000     
   5.03120900000000       -6.30997100000000      -0.729270000000000     
   7.03742000000000       -5.04929200000000       6.200000000000000E-004
   7.03780000000000       -3.78717200000000       -2.18582100000000     
   9.03829100000000       -2.52437200000000       -1.45715100000000     
   11.0451020000000       -1.26173300000000      -0.727952000000000     
   13.0495720000000       4.436000000000000E-003 -3.620000000000000E-004
   3.03035000000000       -6.31073100000000       -3.64339900000000     
   5.03096000000000       -5.04851200000000       -2.91536900000000     
   5.03096000000000       -3.78685200000000       -5.10062000000000     
   7.03780000000000       -2.52437200000000       -4.37304000000000     
   3.03183000000000       -7.57235100000000       -1.45763900000000     
   3.03074000000000       -2.52437000000000       -1.45783100000000     
   5.03096100000000       -1.26271100000000      -0.728692000000000     
   7.03742100000000       5.490000000000000E-004  6.180000000000000E-004
   15.0360010000000       -21.4503710000000       -12.3949590000000     
   16.0534900000000       -10.0974800000000       -7.28723000000000     
   16.5975240000000       -9.15259300000000       -7.43288800000000     
