Ni  O                                   
    1.000000000000000     
    10.5415000915999997    0.0000000000000000    0.0000000000000000
     5.2707500457999998    9.1292068732999994    0.0000000000000000
     0.0000000000000000    0.0000000000000000   28.5415000916000032
   Ni   O 
   125   127
Direct
 -0.0006240210542438 -0.0004533072616706 -0.1228636250439983
 -0.0040032297144513  0.0023530136081968  0.0068872441067004
 -0.0025356425686224 -0.0033154574105590  0.1417188337176737
 -0.0128664363679042  0.0098932677232868  0.2624416674287285
  0.0119406337163028 -0.0210236384910995  0.3810636067980182
  0.0008786204408453  0.1999590537098234 -0.1221469494423961
 -0.0051597440331472  0.1982358668544522  0.0085362287585533
  0.0004166728192836  0.1998201912447865  0.1398514231697941
  0.0023522972829501  0.2015465135968802  0.2796414735360880
 -0.0030575620935892  0.1854061782692099  0.3834113844162952
  0.0003312828829271  0.3999960009307039 -0.1256139505777366
 -0.0014758806957181  0.3996410962463888  0.0050978029846001
  0.0014318175943831  0.3988825402500142  0.1354924039967728
 -0.0009998013636946  0.4089116560673504  0.2597514213791598
  0.0049268370710233  0.3897466202699094  0.3864086580954769
 -0.0010500476273047  0.5996211978882401 -0.1222377300161630
 -0.0007594423442453  0.6010496475665036  0.0121063087760619
  0.0023673251894449  0.6006549595338401  0.1409461090753690
 -0.0076412855419980  0.6285572147201329  0.2889392427743288
  0.0122759118701124  0.5834240191811497  0.4016340583917834
  0.0006757936039107  0.7990433814003640 -0.1222230012422824
 -0.0012446365344366  0.8010880637767350 -0.0032886754618029
 -0.0013631226634849  0.8018990898335250  0.1299482452199554
  0.0024707495972966  0.8257412663661593  0.2211966298848092
  0.0477545118993501  0.7467704452173585  0.3691633042382437
  0.2000559138325423  0.0006039845464100 -0.1207893057014330
  0.1990185096157000  0.0003854834948196  0.0124224483402004
  0.1996005638731810  0.0022687479831735  0.1414881293175168
  0.1885279654014387 -0.0014789949040611  0.2582082906895738
  0.2043580606553662 -0.0010621593801103  0.3767567480549570
  0.2001917788718997  0.1999688100397639 -0.1238445413253645
  0.2011111094738873  0.1989250882015074  0.0043040421240688
  0.2008884029599544  0.2000166497399132  0.1361038663012668
  0.1980206074197516  0.2031076975707587  0.2571120374579815
  0.2042234004047407  0.1999444464260505  0.3881364721852477
  0.1991730559885945  0.3993806961849678 -0.1217314582264689
  0.2008624514056856  0.3999071566345066  0.0070530720117549
  0.2001624674363019  0.4029997519557250  0.1457334736579668
  0.1923159367472846  0.4114396279687764  0.2690612900078634
  0.2236704512495491  0.4241967563099852  0.3759891483472360
  0.1998074725809165  0.5993492831290381 -0.1216728889668012
  0.2000580932789897  0.6003587375486813 -0.0030215550114319
  0.2006605930357974  0.5989574379247542  0.1074233873247409
  0.1734660007785037  0.6118420587519183  0.2328889747654593
  0.2566564559580696  0.5565202559203262  0.4420976859934079
  0.2005141005506814  0.7995423734308961 -0.1236651738920746
  0.1993555448138316  0.8012439226715741  0.0080630793259385
  0.1989021701238605  0.7995331316769185  0.1418296525901567
  0.2037231366792199  0.7780535429083023  0.2712420679804881
  0.2261167677353937  0.7593777950725558  0.3952872142210270
  0.3997841458723008 -0.0005160537244853 -0.1256305857281786
  0.4041121549835038  0.0026680897311863  0.0030500061913692
  0.3974698684175341  0.0038369785365410  0.1380842124791739
  0.3991929612103058 -0.0012973886734148  0.2643311210815745
  0.4073905963840262  0.0062880832357236  0.3819178669775484
  0.3989821513855726  0.1994082590856959 -0.1226145794975558
  0.4068744397170490  0.2066448909094387  0.0148239043075732
  0.3975842375096447  0.2038794042327166  0.1364297943585604
  0.4028196397469433  0.1971287094445098  0.2707642958357541
  0.4004403592904351  0.2144430215301682  0.3935284057260651
  0.3985748315114957  0.4004404530822839 -0.1262534469758729
  0.4078411680984969  0.3925899616386349  0.0163779310558916
  0.3933701647331296  0.4071022625338495  0.1385838624030646
  0.4011062100529613  0.3948859248739590  0.2479846972055190
  0.4119271952959791  0.4040368485730121  0.3416821215873163
  0.4009651273352973  0.6009937639233168 -0.1198357033367042
  0.3992660301003025  0.6009038109223752  0.0140075948245713
  0.3964349825012840  0.6002057153946212  0.1409651197878816
  0.4156478220398377  0.5873857769617856  0.2471425195881674
  0.4152056151585596  0.5932432844680731  0.3571764148971199
  0.3998282287965763  0.8014690520726999 -0.1237787313826148
  0.4002641743132105  0.8019350510846281  0.0076197401270161
  0.4023541417491094  0.7989108887119609  0.1388483982642585
  0.3938366636417118  0.8016249862278878  0.2700928162265629
  0.4028300955201389  0.7979278692373033  0.3868880669496723
  0.5998529840664547 -0.0012512460212394 -0.1218428393148154
  0.5980793088776062  0.0179297152899524  0.0170863887280014
  0.6007588899839388 -0.0000064312107116  0.1447090679149994
  0.6104144803866012 -0.0113432115567638  0.2872715109848736
  0.6184777780372246  0.0006621181159600  0.3814781407507319
  0.5981382438148398  0.2020981085870842 -0.1253571653709824
  0.6025270658173401  0.1974758658911131 -0.0358966643751621
  0.6106947917494607  0.1906042588304312  0.1489339651939266
  0.6156328944153081  0.1824556648857777  0.2489936747673303
  0.5885507000677328  0.2158923543650141  0.3842911721981850
  0.6009025344673649  0.4013183190902584 -0.1215284464774958
  0.5936722063768543  0.3927659507053459  0.0155449742882099
  0.5984301969261399  0.4018356316658515  0.1348171349339458
  0.5966256821711168  0.3998456819733551  0.2585461212190737
  0.5568765717814727  0.4097012582542301  0.4122262620888284
  0.6004462378626992  0.6008642621254675 -0.1249789477881882
  0.6003819898034661  0.5983390155397104  0.0032675402579508
  0.5997446104157529  0.5998943942360705  0.1385177643521223
  0.6030371964975216  0.5963512093319902  0.2649004471333503
  0.5956435617111789  0.5912909384315528  0.3931128703353887
  0.5994929238185842  0.7996204191246179 -0.1241210776155176
  0.6013066608673948  0.8058211801437735  0.0051218269046682
  0.5999248608769195  0.8012284694090460  0.1344908230664749
  0.6038017557834912  0.8006161206846337  0.2678629879975012
  0.6039757664556288  0.7956172533478044  0.3737738020680447
  0.8008044192442630 -0.0005571222759529 -0.1251375067001929
  0.8014098229392326 -0.0015723745684726 -0.0095743957661372
  0.7942295240441806  0.0017373341436321  0.0986467793418754
  0.8126975286481124 -0.0213276848014774  0.2540438752767235
  0.8052610748284574  0.0092525128253554  0.4259297766798126
  0.8003419267271088  0.2005246288985600 -0.1244775154033525
  0.7827864422501950  0.2021943844562668  0.0155948122326905
  0.8032245549895415  0.1950563860084220  0.1376152268624617
  0.7982981917454015  0.2147899601937780  0.2450221430424271
  0.7810693650498036  0.2023123405239126  0.3637807956133474
  0.8018012754128082  0.4000221610831022 -0.1227454468827055
  0.7976303058114729  0.3959657532290480  0.0067836355881760
  0.7975172803644710  0.4008434367963077  0.1397593376886263
  0.8012075550544902  0.3987374201828344  0.2759433129202835
  0.7875125794561971  0.3920867149839125  0.3832065440114584
  0.7993114966014149  0.5996014046571387 -0.1239107731003024
  0.7997733958745413  0.6006696631459851  0.0068176939770855
  0.7982953152530000  0.5987496065321907  0.1396390263821855
  0.8003031583081401  0.6090447934119904  0.2701185803586250
  0.7955225078932228  0.5960950895271629  0.3765663415799202
  0.7997546330268486  0.8000488454542686 -0.1229359263832750
  0.7976972990241100  0.8044503527693749  0.0091543930094874
  0.8028803809547429  0.8017646427153428  0.1409433699321002
  0.7948973408202546  0.7917575841694224  0.2362808034292326
  0.8078977471950907  0.8048561687615298  0.3859206462015536
  0.0986706252351702  0.1012678601106857 -0.0640312426069744
  0.0971046412430536  0.1035210211166897  0.0757220285952577
  0.0963345744739687  0.0952258972165128  0.2052516056021332
  0.1108266901019714  0.0921493412939787  0.3233644729529386
  0.0707247246609098  0.1026694751628388  0.4514931552730414
  0.1037167707413189  0.2893973014463494 -0.0575431657644609
  0.1006958719024723  0.2986419726100111  0.0761716043670135
  0.0917112736101873  0.3024364115539032  0.2074286701733892
  0.1097370599846536  0.3115641863303032  0.3238758908634587
  0.0907546823601539  0.2928539427552445  0.4475464586942968
  0.1116214332068133  0.4879444259477095 -0.0614905885066132
  0.0961188765766725  0.4939612477513229  0.0778903666831580
  0.1098445747372589  0.4871757413881441  0.2150772170556952
  0.1184612744636154  0.5292967652535567  0.3302418870397175
  0.0687478553325314  0.5624030337190219  0.4565034260173871
  0.0791968766645356  0.7190810976640367 -0.0635624259013953
  0.0909945314480352  0.7084962766698116  0.0595329198450564
  0.1427093077507708  0.6490374890349028  0.1679328493438659
 -0.0669296121914446  0.8062144010699188  0.2785866172522132
  0.0133748840360377  0.7869510907559453  0.4648858687150860
  0.1005807823207018  0.9126786939002380 -0.0659152750771461
  0.0968492433097106  0.9068464408047753  0.0786698165952384
  0.1093269403116652  0.8908603827800531  0.1971778026279929
  0.0804212907592131  0.9010775322481076  0.3086516578978198
  0.1236623582055137  0.8957120992663073  0.4309076465443232
  0.2882449425595922  0.1003621681941917 -0.0586152231537975
  0.3019284873911240  0.0966198287488274  0.0744924392185615
  0.3021228115206182  0.0970883125540515  0.2063774683594583
  0.2950704968707509  0.1054373114580957  0.3127667356938586
  0.2956470063357393  0.0842661486373452  0.4436422744713659
  0.3025005224345717  0.3038180851871299 -0.0637852172689088
  0.2998688169168677  0.2951185339320807  0.0684755439471279
  0.2966768160954605  0.2883786957018403  0.1967781449976145
  0.2939993075307666  0.3114731593225458  0.3226546009609445
  0.2755407927678885  0.3293855388021115  0.4579082815816444
  0.2853192395528584  0.5201889473097825 -0.0657012288313221
  0.3108645130338674  0.4870443242701449  0.0663835403264846
  0.3126132551986567  0.4843799590939475  0.1939416092993531
  0.2692647036691913  0.5223234700708900  0.2870306776075219
  0.2864720763469513  0.4095434719531706  0.4916550971521167
  0.2968118774239694  0.7062147306265534 -0.0642506205843538
  0.3044014155816657  0.7050949966841029  0.0778975917932380
  0.2889475324620831  0.7129237228634472  0.2060812810270787
  0.2339531881138679  0.6980009798120482  0.3337040974960097
  0.3141405798180615  0.7033782887104629  0.4720740874070482
  0.3223252161969660  0.8798581308718100 -0.0638406021211116
  0.3009630367739154  0.9031006240679104  0.0765572026089746
  0.2979300087798734  0.9010945359757089  0.2104725412996951
  0.3041210779322245  0.8770406206738279  0.3315257207870265
  0.2822001467800690  0.9353970876228315  0.4531371196235731
  0.4871819773799648  0.1063067347526317 -0.0671655980736461
  0.5038063994112174  0.1015177239415879  0.0864707467164388
  0.4846458664498378  0.1056559696681505  0.2033790834091419
  0.5032168981373849  0.1082587189516690  0.3383214472953155
  0.4934492953968432  0.0969178209030554  0.4345864456957111
  0.4572078193453599  0.3451646843975970 -0.0738509500378488
  0.5140942420452391  0.2842926582825858  0.0933910573843147
  0.5112227522054563  0.2885062652188228  0.2035241796753721
  0.4905309395493900  0.2747341804300422  0.2936733248995421
  0.5090629501402966  0.3277501569631636  0.4538549344181168
  0.4972219321989647  0.4923944086062391 -0.0682895588928197
  0.5054463608956089  0.4992954912634205  0.0710655660125031
  0.5141178174188005  0.5016521740278215  0.1960685602525291
  0.5114238974204826  0.4742208563688022  0.3130847558351242
  0.4554048087887160  0.5471901777754380  0.4527265135238551
  0.5178973596673629  0.6837170782774329 -0.0580421026415083
  0.5045106960635564  0.7005948228354910  0.0753139954062216
  0.4996939108613828  0.7116586361367985  0.2010091046259440
  0.4887552295167173  0.6839489065824482  0.3110248455023842
  0.5051038298237138  0.7556656345036118  0.4489834843918806
  0.4926478419717383  0.9089095894674057 -0.0558610084384331
  0.5035884389916000  0.9011320960259152  0.0740247806759771
  0.5056133274520599  0.8934120797556642  0.2084323792570738
  0.4970391028824315  0.8988643411786020  0.3176314821024522
  0.5064751388246360  0.8676634908483815  0.4547574407172723
  0.7641570631299760  0.0343616815374335 -0.0749475313935636
  0.6890160068246922  0.1074606913392482  0.0413142763542080
  0.7035098693656163  0.0909490367601478  0.1984479909026088
  0.7078534708825615  0.0812658169873453  0.3030729929872957
  0.7006606758346343  0.0766658790407943  0.4759864269446751
  0.7082415322458737  0.2972034716024282 -0.0646256333031715
  0.6986812015542995  0.2937167571018366  0.0851340952249557
  0.7028458280749394  0.3092543143227520  0.1939424899847061
  0.7180641943726914  0.2721447486055293  0.3009965641331825
  0.7288760843243800  0.2820344926507165  0.4382838561008641
  0.6887270396828734  0.5141299617838371 -0.0573633105716364
  0.7030373627385782  0.4987635546198357  0.0755200810182176
  0.7021712306801011  0.5034444889008765  0.2120193312309852
  0.6918021522068400  0.5039940231129924  0.3357365222543423
  0.7336418873334890  0.4946328427591982  0.4537848095352360
  0.7038275410854677  0.7035653887295202 -0.0575222238116967
  0.6973183282647161  0.7019145473191722  0.0739686781475017
  0.7025236057066486  0.6949815819981493  0.2079430909586865
  0.7099885084629634  0.7117838378284216  0.3165091021635976
  0.7337101316533138  0.7115642627557048  0.4489548254294056
  0.6842797286593763  0.8986251579663688 -0.0656084314698620
  0.7017446133679779  0.9124493608623533  0.0859088941078880
  0.6776421912235973  0.9200060794642360  0.1993017533539665
  0.7296134375796699  0.9002111593811534  0.3321741164659491
  0.7229504103125499  0.9062370731283468  0.4476586343039475
  0.9060452179543976  0.1091682635851179 -0.0635772504027242
  0.8870462971237651  0.0970540682176134  0.0832356689270853
  0.9048696835022366  0.0880943718412777  0.2034912422201574
  0.9063994430684029  0.0977171253737902  0.3265220345081858
  0.8824815065362385  0.1105488239826533  0.4510930889641445
  0.8846950281432732  0.3240060098544321 -0.0623628530814379
  0.9014679477229683  0.2984673029188820  0.0726296792597032
  0.9099563323121491  0.2999574643749019  0.2034162775882433
  0.9016199387397461  0.3069118303277411  0.3297851253383787
  0.9001408618561655  0.2964159857451411  0.4509684903358100
  0.9122795785449477  0.4914346787086929 -0.0565097528162532
  0.8950179906274670  0.5018818332227613  0.0747000178641293
  0.8916013282966582  0.5067918268727597  0.2083379922337527
  0.9140358869513617  0.5020380989543753  0.3135462779612989
  0.8997576183720084  0.4799510861155822  0.4511327779823119
  0.8978569643799078  0.6856528731041039 -0.0645350933317081
  0.8916761654880576  0.7025407966778089  0.0782951986946679
  0.9275592721473407  0.6798211894989604  0.1956094667269343
  0.9356249874168632  0.6909649072384005  0.3456545398092068
  0.8700048765957517  0.6876326328969983  0.4534153837290165
  0.9049253215260864  0.8879635242288102 -0.0619073802717976
  0.8992926516096532  0.9001199279060816  0.0459710204576660
  0.8787384494854784  0.9216874676994531  0.1684279907797769
  0.8938230297080574  0.9299056510802287  0.3617423554086159
  0.9507701215463330  0.8735779837201585  0.4963571275167011
  0.5625086316697500  0.2890344539621195  0.5041161851293225
  0.2653930463387004  0.6434635132779662  0.5008399658369298
 
  0.00000000E+00  0.00000000E+00  0.00000000E+00
  0.00000000E+00  0.00000000E+00  0.00000000E+00
  0.00000000E+00  0.00000000E+00  0.00000000E+00
  0.00000000E+00  0.00000000E+00  0.00000000E+00
  0.00000000E+00  0.00000000E+00  0.00000000E+00
  0.00000000E+00  0.00000000E+00  0.00000000E+00
  0.00000000E+00  0.00000000E+00  0.00000000E+00
  0.00000000E+00  0.00000000E+00  0.00000000E+00
  0.00000000E+00  0.00000000E+00  0.00000000E+00
  0.00000000E+00  0.00000000E+00  0.00000000E+00
  0.00000000E+00  0.00000000E+00  0.00000000E+00
  0.00000000E+00  0.00000000E+00  0.00000000E+00
  0.00000000E+00  0.00000000E+00  0.00000000E+00
  0.00000000E+00  0.00000000E+00  0.00000000E+00
  0.00000000E+00  0.00000000E+00  0.00000000E+00
  0.00000000E+00  0.00000000E+00  0.00000000E+00
  0.00000000E+00  0.00000000E+00  0.00000000E+00
  0.00000000E+00  0.00000000E+00  0.00000000E+00
  0.00000000E+00  0.00000000E+00  0.00000000E+00
  0.00000000E+00  0.00000000E+00  0.00000000E+00
  0.00000000E+00  0.00000000E+00  0.00000000E+00
  0.00000000E+00  0.00000000E+00  0.00000000E+00
  0.00000000E+00  0.00000000E+00  0.00000000E+00
  0.00000000E+00  0.00000000E+00  0.00000000E+00
  0.00000000E+00  0.00000000E+00  0.00000000E+00
  0.00000000E+00  0.00000000E+00  0.00000000E+00
  0.00000000E+00  0.00000000E+00  0.00000000E+00
  0.00000000E+00  0.00000000E+00  0.00000000E+00
  0.00000000E+00  0.00000000E+00  0.00000000E+00
  0.00000000E+00  0.00000000E+00  0.00000000E+00
  0.00000000E+00  0.00000000E+00  0.00000000E+00
  0.00000000E+00  0.00000000E+00  0.00000000E+00
  0.00000000E+00  0.00000000E+00  0.00000000E+00
  0.00000000E+00  0.00000000E+00  0.00000000E+00
  0.00000000E+00  0.00000000E+00  0.00000000E+00
  0.00000000E+00  0.00000000E+00  0.00000000E+00
  0.00000000E+00  0.00000000E+00  0.00000000E+00
  0.00000000E+00  0.00000000E+00  0.00000000E+00
  0.00000000E+00  0.00000000E+00  0.00000000E+00
  0.00000000E+00  0.00000000E+00  0.00000000E+00
  0.00000000E+00  0.00000000E+00  0.00000000E+00
  0.00000000E+00  0.00000000E+00  0.00000000E+00
  0.00000000E+00  0.00000000E+00  0.00000000E+00
  0.00000000E+00  0.00000000E+00  0.00000000E+00
  0.00000000E+00  0.00000000E+00  0.00000000E+00
  0.00000000E+00  0.00000000E+00  0.00000000E+00
  0.00000000E+00  0.00000000E+00  0.00000000E+00
  0.00000000E+00  0.00000000E+00  0.00000000E+00
  0.00000000E+00  0.00000000E+00  0.00000000E+00
  0.00000000E+00  0.00000000E+00  0.00000000E+00
  0.00000000E+00  0.00000000E+00  0.00000000E+00
  0.00000000E+00  0.00000000E+00  0.00000000E+00
  0.00000000E+00  0.00000000E+00  0.00000000E+00
  0.00000000E+00  0.00000000E+00  0.00000000E+00
  0.00000000E+00  0.00000000E+00  0.00000000E+00
  0.00000000E+00  0.00000000E+00  0.00000000E+00
  0.00000000E+00  0.00000000E+00  0.00000000E+00
  0.00000000E+00  0.00000000E+00  0.00000000E+00
  0.00000000E+00  0.00000000E+00  0.00000000E+00
  0.00000000E+00  0.00000000E+00  0.00000000E+00
  0.00000000E+00  0.00000000E+00  0.00000000E+00
  0.00000000E+00  0.00000000E+00  0.00000000E+00
  0.00000000E+00  0.00000000E+00  0.00000000E+00
  0.00000000E+00  0.00000000E+00  0.00000000E+00
  0.00000000E+00  0.00000000E+00  0.00000000E+00
  0.00000000E+00  0.00000000E+00  0.00000000E+00
  0.00000000E+00  0.00000000E+00  0.00000000E+00
  0.00000000E+00  0.00000000E+00  0.00000000E+00
  0.00000000E+00  0.00000000E+00  0.00000000E+00
  0.00000000E+00  0.00000000E+00  0.00000000E+00
  0.00000000E+00  0.00000000E+00  0.00000000E+00
  0.00000000E+00  0.00000000E+00  0.00000000E+00
  0.00000000E+00  0.00000000E+00  0.00000000E+00
  0.00000000E+00  0.00000000E+00  0.00000000E+00
  0.00000000E+00  0.00000000E+00  0.00000000E+00
  0.00000000E+00  0.00000000E+00  0.00000000E+00
  0.00000000E+00  0.00000000E+00  0.00000000E+00
  0.00000000E+00  0.00000000E+00  0.00000000E+00
  0.00000000E+00  0.00000000E+00  0.00000000E+00
  0.00000000E+00  0.00000000E+00  0.00000000E+00
  0.00000000E+00  0.00000000E+00  0.00000000E+00
  0.00000000E+00  0.00000000E+00  0.00000000E+00
  0.00000000E+00  0.00000000E+00  0.00000000E+00
  0.00000000E+00  0.00000000E+00  0.00000000E+00
  0.00000000E+00  0.00000000E+00  0.00000000E+00
  0.00000000E+00  0.00000000E+00  0.00000000E+00
  0.00000000E+00  0.00000000E+00  0.00000000E+00
  0.00000000E+00  0.00000000E+00  0.00000000E+00
  0.00000000E+00  0.00000000E+00  0.00000000E+00
  0.00000000E+00  0.00000000E+00  0.00000000E+00
  0.00000000E+00  0.00000000E+00  0.00000000E+00
  0.00000000E+00  0.00000000E+00  0.00000000E+00
  0.00000000E+00  0.00000000E+00  0.00000000E+00
  0.00000000E+00  0.00000000E+00  0.00000000E+00
  0.00000000E+00  0.00000000E+00  0.00000000E+00
  0.00000000E+00  0.00000000E+00  0.00000000E+00
  0.00000000E+00  0.00000000E+00  0.00000000E+00
  0.00000000E+00  0.00000000E+00  0.00000000E+00
  0.00000000E+00  0.00000000E+00  0.00000000E+00
  0.00000000E+00  0.00000000E+00  0.00000000E+00
  0.00000000E+00  0.00000000E+00  0.00000000E+00
  0.00000000E+00  0.00000000E+00  0.00000000E+00
  0.00000000E+00  0.00000000E+00  0.00000000E+00
  0.00000000E+00  0.00000000E+00  0.00000000E+00
  0.00000000E+00  0.00000000E+00  0.00000000E+00
  0.00000000E+00  0.00000000E+00  0.00000000E+00
  0.00000000E+00  0.00000000E+00  0.00000000E+00
  0.00000000E+00  0.00000000E+00  0.00000000E+00
  0.00000000E+00  0.00000000E+00  0.00000000E+00
  0.00000000E+00  0.00000000E+00  0.00000000E+00
  0.00000000E+00  0.00000000E+00  0.00000000E+00
  0.00000000E+00  0.00000000E+00  0.00000000E+00
  0.00000000E+00  0.00000000E+00  0.00000000E+00
  0.00000000E+00  0.00000000E+00  0.00000000E+00
  0.00000000E+00  0.00000000E+00  0.00000000E+00
  0.00000000E+00  0.00000000E+00  0.00000000E+00
  0.00000000E+00  0.00000000E+00  0.00000000E+00
  0.00000000E+00  0.00000000E+00  0.00000000E+00
  0.00000000E+00  0.00000000E+00  0.00000000E+00
  0.00000000E+00  0.00000000E+00  0.00000000E+00
  0.00000000E+00  0.00000000E+00  0.00000000E+00
  0.00000000E+00  0.00000000E+00  0.00000000E+00
  0.00000000E+00  0.00000000E+00  0.00000000E+00
  0.00000000E+00  0.00000000E+00  0.00000000E+00
  0.00000000E+00  0.00000000E+00  0.00000000E+00
  0.00000000E+00  0.00000000E+00  0.00000000E+00
  0.00000000E+00  0.00000000E+00  0.00000000E+00
  0.00000000E+00  0.00000000E+00  0.00000000E+00
  0.00000000E+00  0.00000000E+00  0.00000000E+00
  0.00000000E+00  0.00000000E+00  0.00000000E+00
  0.00000000E+00  0.00000000E+00  0.00000000E+00
  0.00000000E+00  0.00000000E+00  0.00000000E+00
  0.00000000E+00  0.00000000E+00  0.00000000E+00
  0.00000000E+00  0.00000000E+00  0.00000000E+00
  0.00000000E+00  0.00000000E+00  0.00000000E+00
  0.00000000E+00  0.00000000E+00  0.00000000E+00
  0.00000000E+00  0.00000000E+00  0.00000000E+00
  0.00000000E+00  0.00000000E+00  0.00000000E+00
  0.00000000E+00  0.00000000E+00  0.00000000E+00
  0.00000000E+00  0.00000000E+00  0.00000000E+00
  0.00000000E+00  0.00000000E+00  0.00000000E+00
  0.00000000E+00  0.00000000E+00  0.00000000E+00
  0.00000000E+00  0.00000000E+00  0.00000000E+00
  0.00000000E+00  0.00000000E+00  0.00000000E+00
  0.00000000E+00  0.00000000E+00  0.00000000E+00
  0.00000000E+00  0.00000000E+00  0.00000000E+00
  0.00000000E+00  0.00000000E+00  0.00000000E+00
  0.00000000E+00  0.00000000E+00  0.00000000E+00
  0.00000000E+00  0.00000000E+00  0.00000000E+00
  0.00000000E+00  0.00000000E+00  0.00000000E+00
  0.00000000E+00  0.00000000E+00  0.00000000E+00
  0.00000000E+00  0.00000000E+00  0.00000000E+00
  0.00000000E+00  0.00000000E+00  0.00000000E+00
  0.00000000E+00  0.00000000E+00  0.00000000E+00
  0.00000000E+00  0.00000000E+00  0.00000000E+00
  0.00000000E+00  0.00000000E+00  0.00000000E+00
  0.00000000E+00  0.00000000E+00  0.00000000E+00
  0.00000000E+00  0.00000000E+00  0.00000000E+00
  0.00000000E+00  0.00000000E+00  0.00000000E+00
  0.00000000E+00  0.00000000E+00  0.00000000E+00
  0.00000000E+00  0.00000000E+00  0.00000000E+00
  0.00000000E+00  0.00000000E+00  0.00000000E+00
  0.00000000E+00  0.00000000E+00  0.00000000E+00
  0.00000000E+00  0.00000000E+00  0.00000000E+00
  0.00000000E+00  0.00000000E+00  0.00000000E+00
  0.00000000E+00  0.00000000E+00  0.00000000E+00
  0.00000000E+00  0.00000000E+00  0.00000000E+00
  0.00000000E+00  0.00000000E+00  0.00000000E+00
  0.00000000E+00  0.00000000E+00  0.00000000E+00
  0.00000000E+00  0.00000000E+00  0.00000000E+00
  0.00000000E+00  0.00000000E+00  0.00000000E+00
  0.00000000E+00  0.00000000E+00  0.00000000E+00
  0.00000000E+00  0.00000000E+00  0.00000000E+00
  0.00000000E+00  0.00000000E+00  0.00000000E+00
  0.00000000E+00  0.00000000E+00  0.00000000E+00
  0.00000000E+00  0.00000000E+00  0.00000000E+00
  0.00000000E+00  0.00000000E+00  0.00000000E+00
  0.00000000E+00  0.00000000E+00  0.00000000E+00
  0.00000000E+00  0.00000000E+00  0.00000000E+00
  0.00000000E+00  0.00000000E+00  0.00000000E+00
  0.00000000E+00  0.00000000E+00  0.00000000E+00
  0.00000000E+00  0.00000000E+00  0.00000000E+00
  0.00000000E+00  0.00000000E+00  0.00000000E+00
  0.00000000E+00  0.00000000E+00  0.00000000E+00
  0.00000000E+00  0.00000000E+00  0.00000000E+00
  0.00000000E+00  0.00000000E+00  0.00000000E+00
  0.00000000E+00  0.00000000E+00  0.00000000E+00
  0.00000000E+00  0.00000000E+00  0.00000000E+00
  0.00000000E+00  0.00000000E+00  0.00000000E+00
  0.00000000E+00  0.00000000E+00  0.00000000E+00
  0.00000000E+00  0.00000000E+00  0.00000000E+00
  0.00000000E+00  0.00000000E+00  0.00000000E+00
  0.00000000E+00  0.00000000E+00  0.00000000E+00
  0.00000000E+00  0.00000000E+00  0.00000000E+00
  0.00000000E+00  0.00000000E+00  0.00000000E+00
  0.00000000E+00  0.00000000E+00  0.00000000E+00
  0.00000000E+00  0.00000000E+00  0.00000000E+00
  0.00000000E+00  0.00000000E+00  0.00000000E+00
  0.00000000E+00  0.00000000E+00  0.00000000E+00
  0.00000000E+00  0.00000000E+00  0.00000000E+00
  0.00000000E+00  0.00000000E+00  0.00000000E+00
  0.00000000E+00  0.00000000E+00  0.00000000E+00
  0.00000000E+00  0.00000000E+00  0.00000000E+00
  0.00000000E+00  0.00000000E+00  0.00000000E+00
  0.00000000E+00  0.00000000E+00  0.00000000E+00
  0.00000000E+00  0.00000000E+00  0.00000000E+00
  0.00000000E+00  0.00000000E+00  0.00000000E+00
  0.00000000E+00  0.00000000E+00  0.00000000E+00
  0.00000000E+00  0.00000000E+00  0.00000000E+00
  0.00000000E+00  0.00000000E+00  0.00000000E+00
  0.00000000E+00  0.00000000E+00  0.00000000E+00
  0.00000000E+00  0.00000000E+00  0.00000000E+00
  0.00000000E+00  0.00000000E+00  0.00000000E+00
  0.00000000E+00  0.00000000E+00  0.00000000E+00
  0.00000000E+00  0.00000000E+00  0.00000000E+00
  0.00000000E+00  0.00000000E+00  0.00000000E+00
  0.00000000E+00  0.00000000E+00  0.00000000E+00
  0.00000000E+00  0.00000000E+00  0.00000000E+00
  0.00000000E+00  0.00000000E+00  0.00000000E+00
  0.00000000E+00  0.00000000E+00  0.00000000E+00
  0.00000000E+00  0.00000000E+00  0.00000000E+00
  0.00000000E+00  0.00000000E+00  0.00000000E+00
  0.00000000E+00  0.00000000E+00  0.00000000E+00
  0.00000000E+00  0.00000000E+00  0.00000000E+00
  0.00000000E+00  0.00000000E+00  0.00000000E+00
  0.00000000E+00  0.00000000E+00  0.00000000E+00
  0.00000000E+00  0.00000000E+00  0.00000000E+00
  0.00000000E+00  0.00000000E+00  0.00000000E+00
  0.00000000E+00  0.00000000E+00  0.00000000E+00
  0.00000000E+00  0.00000000E+00  0.00000000E+00
  0.00000000E+00  0.00000000E+00  0.00000000E+00
  0.00000000E+00  0.00000000E+00  0.00000000E+00
  0.00000000E+00  0.00000000E+00  0.00000000E+00
  0.00000000E+00  0.00000000E+00  0.00000000E+00
  0.00000000E+00  0.00000000E+00  0.00000000E+00
  0.00000000E+00  0.00000000E+00  0.00000000E+00
  0.00000000E+00  0.00000000E+00  0.00000000E+00
  0.00000000E+00  0.00000000E+00  0.00000000E+00
  0.00000000E+00  0.00000000E+00  0.00000000E+00
  0.00000000E+00  0.00000000E+00  0.00000000E+00
  0.00000000E+00  0.00000000E+00  0.00000000E+00
  0.00000000E+00  0.00000000E+00  0.00000000E+00
  0.00000000E+00  0.00000000E+00  0.00000000E+00
  0.00000000E+00  0.00000000E+00  0.00000000E+00
  0.00000000E+00  0.00000000E+00  0.00000000E+00
  0.00000000E+00  0.00000000E+00  0.00000000E+00
  0.00000000E+00  0.00000000E+00  0.00000000E+00
  0.00000000E+00  0.00000000E+00  0.00000000E+00
  0.00000000E+00  0.00000000E+00  0.00000000E+00
  0.00000000E+00  0.00000000E+00  0.00000000E+00
  0.00000000E+00  0.00000000E+00  0.00000000E+00
  0.00000000E+00  0.00000000E+00  0.00000000E+00
