Ni  O                                   
    1.000000000000000     
    10.5415000915999997    0.0000000000000000    0.0000000000000000
     5.2707500457999998    9.1292068732999994    0.0000000000000000
     0.0000000000000000    0.0000000000000000   28.5415000916000032
   Ni   O 
   125   127
Direct
 -0.0199412543210161  0.0045801926141075 -0.0921947725455601
 -0.0089096688614210  0.0119262602298104  0.0136237006798813
 -0.0096837433318841  0.0104840270305172  0.1456806957770473
  0.0006380816814112 -0.0049048260414107  0.2493404170034277
 -0.0004974371814641  0.0015256459780335  0.3831852240662439
  0.0166933992942469  0.1738691722498621 -0.1202777502834178
 -0.0069497568189200  0.2033576283250061 -0.0191693546909157
  0.0046236463608322  0.2024443307884412  0.1237184307703201
 -0.0002206912551300  0.1934375819856199  0.2722015149010500
  0.0089726850671424  0.1992747718349104  0.3652891451206463
  0.0087072328552516  0.4094887823745850 -0.1039179685688028
 -0.0020665596054223  0.3898225890696704  0.0189631808400060
  0.0105531746543151  0.3962764688074475  0.1521635449003662
  0.0050392585442561  0.4030865123986930  0.2587026136561200
  0.0071270138484580  0.3964097828866455  0.3933683986453593
 -0.0022894088678823  0.6046546748850006 -0.1450681930075448
 -0.0005164668216795  0.6001910787049692  0.0236457880780092
 -0.0013746203999276  0.6015251976770132  0.1539374577007863
  0.0138034743630531  0.6085005935139380  0.2806707912687313
  0.0145523863328999  0.6038348194052536  0.4237127513865703
 -0.0050380753030870  0.8188407028046386 -0.1606553572368130
 -0.0050503830674320  0.8142821672127677  0.0153252499699651
 -0.0104032659911349  0.8094381409314236  0.1178801784849601
 -0.0073160591716925  0.7994918689315172  0.2169730745461157
 -0.0002243691872537  0.7929479503431801  0.3716091326235892
  0.1929837186841241 -0.0076811351269947 -0.1378700592670080
  0.1984625461864378 -0.0043032127210457  0.0292034466988947
  0.2005126052908491 -0.0055151982493582  0.1266157959377458
  0.1956287971810584  0.0043858461564251  0.2447151551328031
  0.2042430135239782 -0.0112689001430611  0.3918154548662899
  0.2049681425941911  0.2005761351098137 -0.1112463337228878
  0.1960586182593523  0.1953075878131027  0.0108797809089515
  0.2202606669097053  0.1845215730038983  0.1423288092404814
  0.2041818506277536  0.1993639078788409  0.2600054799646017
  0.2124038504441904  0.1799939086267360  0.4014411270086408
  0.2027860649654928  0.4003723568253177 -0.1363803353961268
  0.1939758943896010  0.4049165632872880  0.0401960733673100
  0.2153995368780793  0.3939930210409051  0.1477892112116842
  0.2113416566473423  0.3978697726924385  0.2786586529941124
  0.2053974321396114  0.3947200272694525  0.3868881626583645
  0.2060348433546094  0.6050910033435938 -0.1409622345067107
  0.2008842637261303  0.5997633124333659  0.0054569106161394
  0.2152470817447687  0.5820959836905473  0.1098333490579552
  0.1882671255358720  0.5991019459859195  0.2278291188586202
  0.1842485921419091  0.6048216999485073  0.3458887674364216
  0.1832450301277949  0.7892261989335245 -0.1038904342456168
  0.2141501535998096  0.7988723716468620  0.0128317898856417
  0.1927112667927933  0.7951756987428494  0.1425712883831660
  0.1964188177514778  0.7918731204037007  0.2589548663653512
  0.2042554081330865  0.7959980702943702  0.3619944250428337
  0.3966143605616357  0.0015132465697289 -0.1254379910088282
  0.4015520641087503 -0.0148066246406922  0.0028502271949326
  0.4099722258954812 -0.0010404220004805  0.1204860629969985
  0.4031567530946887  0.0053089443912866  0.2457586596514585
  0.4101311751113874 -0.0005357694730556  0.3646828398846925
  0.3819076525268567  0.2501405309023662 -0.1031250330506792
  0.3852985511621122  0.2097214765323443  0.0194254025728234
  0.4055084166878092  0.1946787932414126  0.1655833373359595
  0.4128103329540617  0.1974238155945266  0.2748545973206016
  0.4482852041115322  0.1965877889251507  0.4072514403245011
  0.4068076250542996  0.4055929348818179 -0.1655870877071453
  0.3939667102281654  0.4073747042854594  0.0052794796938417
  0.3990074560058010  0.3783305645428124  0.1084622804163334
  0.3812992950472555  0.4076259831417561  0.2261438620685367
  0.4010693701391463  0.3896549085885875  0.3580300692883356
  0.4017973410941481  0.5558617438117023 -0.0924428392943959
  0.4162726011327083  0.5933709335689108  0.0010277708512901
  0.3970896509241486  0.5930631482887181  0.1420217170020789
  0.4024622883454749  0.5890363050444749  0.2552651722041057
  0.3791014984025588  0.6057606471031046  0.4010528587669600
  0.4059593922317115  0.7948386765040881 -0.1185474562843683
  0.4013753430818262  0.8058117081628470 -0.0324020219584220
  0.4065793907373991  0.7896511422522348  0.1364793163637459
  0.3988652115717775  0.8045744713922656  0.2565326359797789
  0.4054592959013885  0.7997894221001197  0.3726244096498712
  0.5917019768277217  0.0152588340371439 -0.1114154611298936
  0.5893415064200996  0.0024638029358673 -0.0046725468751710
  0.6107531902858718 -0.0104444407477633  0.1065787618141638
  0.6254418982259572 -0.0157974302843330  0.2590043093343960
  0.6141519444958605 -0.0040399537752453  0.3693786827314290
  0.6062155625086152  0.1989794183346747 -0.1446806627184771
  0.5925387194604648  0.2023073019434680  0.0085425396048921
  0.6090637092642900  0.1814115426544053  0.1406298697620849
  0.6029478264440332  0.1969643435627035  0.2351654333992856
  0.6115944385638411  0.1924473044349632  0.3401210805931818
  0.5876992683042878  0.3975024919015184 -0.1194567378682910
  0.5871964155483175  0.4107980545030274  0.0368045016836397
  0.5930225507455039  0.4078855773515985  0.1300340830428716
  0.5903914647875542  0.3951587817940094  0.2664638708392361
  0.5912350428323482  0.3864611735286995  0.4030664834119047
  0.5940843214946981  0.6025553024403408 -0.1251143562549280
  0.5998550323529521  0.5991130171551956  0.0234980088044228
  0.6089942193308634  0.5965905170581828  0.1634765586115405
  0.5956664308435917  0.6015428737785635  0.2749031382988902
  0.6064504702001664  0.5876661972421930  0.3752140615378720
  0.6207374683999384  0.8090159383118978 -0.1437912104587268
  0.5919821572881591  0.8105125547481894  0.0166491799108038
  0.6004244050102376  0.8022633745458109  0.1325192414351470
  0.6038134117379922  0.7996664798109074  0.2632443834228584
  0.6107948126341695  0.7892070660392608  0.4016036071069060
  0.8041475362069712 -0.0145920771264124 -0.1265682396932085
  0.7854970024927046  0.0166896012920667 -0.0215276591770188
  0.7906027773835045  0.0107808996913195  0.1154439356279369
  0.8303675949440152 -0.0265297208690775  0.2579487728439710
  0.8014927767092036 -0.0008566357072573  0.3950805486603186
  0.7799724908313452  0.2042435938377437 -0.0889360296595030
  0.7843371730825170  0.2121139516961390  0.0194370628717537
  0.8090141144808822  0.2050827446573933  0.1242206769926418
  0.7974231220610488  0.2018412562118442  0.2523854613779962
  0.7979905602204207  0.2018150158504107  0.3755893348823168
  0.7812855467197565  0.4075799816543687 -0.1330335020233339
  0.7914324841698155  0.3999560501880748 -0.0047043315579262
  0.8147004799282374  0.3902032646370311  0.1737479168946889
  0.7953416383195854  0.4049010045590741  0.2684093715597881
  0.7960717812191307  0.3986207356993851  0.4170244507920895
  0.7955310508076946  0.6075718873598133 -0.1131741125621920
  0.8124343679635659  0.5807802635967200  0.0072093548396252
  0.8137969823383442  0.5825630014293732  0.1212420835263725
  0.8087728410656854  0.5972101186208125  0.2504389405637996
  0.8250375046941348  0.5788821289928484  0.3649834983750879
  0.8458976278535535  0.7805453340973562 -0.0941147413715381
  0.8140181267227800  0.7986885955817209  0.0022547530965684
  0.7909352312552511  0.8157788465028987  0.1488552548784012
  0.8186883396426479  0.7886074816235121  0.2659628761234062
  0.8048136430372594  0.7857076233984771  0.3780440628967182
  0.1359943881940053  0.0879709265539560 -0.0550921159667062
  0.1077633028450798  0.1030592882504156  0.0763715396838325
  0.0956614808537103  0.1106555576788946  0.1792600239293972
  0.1099044563693153  0.0820892116860561  0.3142519782886490
  0.0174577365272739  0.1132017746766369  0.4593785378451334
  0.0986298915129923  0.3126223985072105 -0.0339250420502015
  0.0604614991669533  0.3081552470351997  0.0950819384770873
  0.0923145345399156  0.3005712057764517  0.2098271709219468
  0.0940935810068467  0.3078829715755877  0.3333643804965377
  0.1255377277389898  0.2914904533115342  0.4490125322037448
  0.1000640497439131  0.4885900292956799 -0.0316751088481015
  0.0878559646651230  0.5030872042569741  0.0969726494254173
  0.0956719407883339  0.5109235129795445  0.2247158468915785
  0.1057243171016028  0.5021334093228732  0.3396173202303024
  0.1429582165930573  0.5274785810492594  0.4683910143294912
  0.0913329818697624  0.6993330105224510 -0.0419697980953137
  0.0985935939162074  0.7053750871310918  0.0639872891567717
  0.1048353446774174  0.6891425299368084  0.1607405256326753
  0.0934295178523926  0.7038904641970061  0.2947660784826360
  0.0562876010890671  0.7691029035232548  0.4461880200430534
  0.1183390228119632  0.8728860985968458 -0.0464915810623835
  0.1005221446645834  0.9027894995149254  0.0619657489435345
  0.1021542024390646  0.8939417910252914  0.1900856701879750
  0.0816403538033708  0.9045227617342214  0.3005009969857144
  0.1403084015635895  0.8686932216035511  0.4156810532982871
  0.3142061801742404  0.0877078129577687 -0.0429440189475877
  0.2864093075836118  0.1207616447437846  0.0758394024731473
  0.2906127369896745  0.1165118108459803  0.1960838961252870
  0.2763700903793690  0.1113906787472187  0.3257703607649390
  0.3224612449622288  0.0360705992140331  0.4647949768801407
  0.3016386436635562  0.3023096422565320 -0.0344066765028792
  0.3011110850175428  0.2958158184276155  0.0866972443113075
  0.2860090686443293  0.3183583417278284  0.2144253355449141
  0.3163964645769737  0.2922835503855777  0.3320408829246514
  0.2631186283227663  0.3021353903832824  0.4421877157190504
  0.2875881812302040  0.4935428889217859 -0.0453276775687889
  0.3075048066557381  0.4961491119468170  0.0562058611858745
  0.3062676770527194  0.4840145818060342  0.1625452892582183
  0.3043814100813115  0.4960674696013402  0.2837273534546080
  0.2417016857251483  0.5667007740246709  0.4700616349231634
  0.2723440010077349  0.7088862669069326 -0.0513718688245734
  0.3004788324716001  0.7136447117216720  0.0822653571513626
  0.2919116049469785  0.6925940472842892  0.2027743167481695
  0.2990355795698507  0.7025856804540351  0.3115244757376825
  0.3349704707218386  0.6883147528725486  0.4557812086345910
  0.2704064836549221  0.9218801847882280 -0.0809143258451485
  0.3100475073620492  0.8960413564051158  0.0792395922402004
  0.3078242649435698  0.9003688171645114  0.1989534173673181
  0.2894425850640379  0.9047266694269537  0.3199387013925516
  0.2526570972034557  0.9770685347254878  0.4658986019414956
  0.4796450801058380  0.1317669787256951 -0.0606569037012197
  0.5119524359155279  0.0969544989403355  0.0590476550392651
  0.4958568552825569  0.0868017171547305  0.2159040926491060
  0.5149549359736946  0.0990490291946484  0.3243167558732073
  0.4916780233958731  0.0796200378630359  0.4502853687461267
  0.5082257626919444  0.2993399786923764 -0.0398086177953546
  0.5612442676309636  0.2351143048111521  0.0832703219281795
  0.5063334477197811  0.2913151697891571  0.1892521406924000
  0.4964534165995665  0.3137209094632473  0.2907064956571731
  0.4050403924907715  0.3672023586092527  0.4375184160806417
  0.5167634035771672  0.4834797039497095 -0.0435130032458003
  0.4981723625018839  0.5109818780256994  0.0890910993567844
  0.5009155555007211  0.4879503044001291  0.2058979470980410
  0.4787059979288180  0.5031090540797735  0.3544514670953605
  0.5389771129597458  0.4922556601611688  0.4711070003951384
  0.5147486631380921  0.6826286174033895 -0.0725019831772897
  0.5012776150260939  0.6966627031770083  0.0693178139370175
  0.4939008951469141  0.7168179322828235  0.2004202050871152
  0.4964277846204113  0.6952667071380830  0.3178467241953145
  0.4534316160117587  0.7751183246546919  0.4500706451153182
  0.4952385338051203  0.9048959269535787 -0.0771117196574606
  0.4794458413505008  0.9052344169475606  0.0603330862202562
  0.4940620890051326  0.9092521506574101  0.1738304483323833
  0.4819727712320359  0.9186179558664213  0.3010843920926621
  0.5418461555434374  0.8336231701233725  0.4586669913701036
  0.6865757031632369  0.1223112497948573 -0.0809320984983229
  0.7383172091867752  0.0785428192859917  0.0409708705018437
  0.7077152598105312  0.0895973371893975  0.1899206625603947
  0.7023455687716915  0.1175192469567689  0.2900694936955248
  0.7343583963359647  0.0655676866223044  0.4505058662816420
  0.6928338275977534  0.3112850507917321 -0.0455739861184501
  0.7236916321901830  0.2967610962452071  0.0719373790871966
  0.7197753293609597  0.2936735668884553  0.1746286148359005
  0.6968882841333582  0.3022520156524485  0.3162446263794812
  0.6933858804480599  0.2780746619481259  0.4465952831734186
  0.6665607917507927  0.5223344473626175 -0.0397412398041512
  0.7223580353040548  0.4861661499323495  0.1141029617868490
  0.6909266089728973  0.5055108032557085  0.2227013735486788
  0.7079299897039546  0.4792379758536237  0.3289424150503782
  0.6336080494232957  0.5244211474204423  0.4636744694904389
  0.6877979427273377  0.7001762256924318 -0.0334267022945301
  0.6866318062043174  0.7044674187386600  0.0826141115983693
  0.6845203325013591  0.7224481219576085  0.2116944090358446
  0.6778717195930397  0.7168561642014956  0.3374372652119478
  0.7218570264500603  0.6720913845736632  0.4577979228129367
  0.7002744786339782  0.8952210276318204 -0.0431844052350451
  0.7009076558495639  0.8895750069741483  0.0537822239295274
  0.6950679010463100  0.9017915597631901  0.1942773864780906
  0.7001120763184453  0.9110631491935393  0.3163151931683855
  0.6533590895091909 -0.0206515298089665  0.4659847452384824
  0.9023067121910273  0.1111092145168483 -0.0348624561000649
  0.9317021130183661  0.0818446589981061  0.0883014707042093
  0.8982815810643708  0.0948127016926737  0.2049690502210622
  0.8934207877502721  0.0848318070351066  0.3326733847255164
  0.9049182282306869  0.1113898783452395  0.4480261049930361
  0.8943797227403631  0.3274783414055439 -0.0791583486662873
  0.9222529155125910  0.2794412225502949  0.0407093908729848
  0.9040292865234536  0.2920992636694652  0.2201470584215049
  0.8941125081747675  0.2975446820448792  0.3205039021437646
  0.9211300161410425  0.2979113797298172  0.4585191574838932
  0.8938335576341696  0.5170084559672344 -0.0656536809795238
  0.8848642431639808  0.5002286285806623  0.0630579097393635
  0.8682346801005998  0.5281284266052153  0.1846543154111992
  0.8940411574327078  0.5111736437763132  0.3051442402844147
  0.8955827603532269  0.4796082689293676  0.4411571798341306
  0.9330292345628673  0.6703087967079296 -0.0364518084231515
  0.8909062220553331  0.6941785596719280  0.0763841090068564
  0.9000414553322180  0.7030064019749356  0.2055354301472251
  0.8941630475341003  0.7233163545144935  0.3225534428722798
  0.8835806893074777  0.7505960785918003  0.4527159462846019
  0.9217067336798342  0.8751776214025518 -0.0609258692465113
  0.9018025311129827  0.8903830700232915  0.0691950399008058
  0.8811120863432812  0.9196453398765805  0.1720268539980559
  0.8820197990761539  0.9341032952866228  0.3318411758904924
  0.9214627939693042  0.8811288062701389  0.4802639296074618
  0.5749619518414052  0.2882122323958161  0.4834820070146298
  0.2815210075098850  0.5839639115327441  0.5072805181320069
 
  0.00000000E+00  0.00000000E+00  0.00000000E+00
  0.00000000E+00  0.00000000E+00  0.00000000E+00
  0.00000000E+00  0.00000000E+00  0.00000000E+00
  0.00000000E+00  0.00000000E+00  0.00000000E+00
  0.00000000E+00  0.00000000E+00  0.00000000E+00
  0.00000000E+00  0.00000000E+00  0.00000000E+00
  0.00000000E+00  0.00000000E+00  0.00000000E+00
  0.00000000E+00  0.00000000E+00  0.00000000E+00
  0.00000000E+00  0.00000000E+00  0.00000000E+00
  0.00000000E+00  0.00000000E+00  0.00000000E+00
  0.00000000E+00  0.00000000E+00  0.00000000E+00
  0.00000000E+00  0.00000000E+00  0.00000000E+00
  0.00000000E+00  0.00000000E+00  0.00000000E+00
  0.00000000E+00  0.00000000E+00  0.00000000E+00
  0.00000000E+00  0.00000000E+00  0.00000000E+00
  0.00000000E+00  0.00000000E+00  0.00000000E+00
  0.00000000E+00  0.00000000E+00  0.00000000E+00
  0.00000000E+00  0.00000000E+00  0.00000000E+00
  0.00000000E+00  0.00000000E+00  0.00000000E+00
  0.00000000E+00  0.00000000E+00  0.00000000E+00
  0.00000000E+00  0.00000000E+00  0.00000000E+00
  0.00000000E+00  0.00000000E+00  0.00000000E+00
  0.00000000E+00  0.00000000E+00  0.00000000E+00
  0.00000000E+00  0.00000000E+00  0.00000000E+00
  0.00000000E+00  0.00000000E+00  0.00000000E+00
  0.00000000E+00  0.00000000E+00  0.00000000E+00
  0.00000000E+00  0.00000000E+00  0.00000000E+00
  0.00000000E+00  0.00000000E+00  0.00000000E+00
  0.00000000E+00  0.00000000E+00  0.00000000E+00
  0.00000000E+00  0.00000000E+00  0.00000000E+00
  0.00000000E+00  0.00000000E+00  0.00000000E+00
  0.00000000E+00  0.00000000E+00  0.00000000E+00
  0.00000000E+00  0.00000000E+00  0.00000000E+00
  0.00000000E+00  0.00000000E+00  0.00000000E+00
  0.00000000E+00  0.00000000E+00  0.00000000E+00
  0.00000000E+00  0.00000000E+00  0.00000000E+00
  0.00000000E+00  0.00000000E+00  0.00000000E+00
  0.00000000E+00  0.00000000E+00  0.00000000E+00
  0.00000000E+00  0.00000000E+00  0.00000000E+00
  0.00000000E+00  0.00000000E+00  0.00000000E+00
  0.00000000E+00  0.00000000E+00  0.00000000E+00
  0.00000000E+00  0.00000000E+00  0.00000000E+00
  0.00000000E+00  0.00000000E+00  0.00000000E+00
  0.00000000E+00  0.00000000E+00  0.00000000E+00
  0.00000000E+00  0.00000000E+00  0.00000000E+00
  0.00000000E+00  0.00000000E+00  0.00000000E+00
  0.00000000E+00  0.00000000E+00  0.00000000E+00
  0.00000000E+00  0.00000000E+00  0.00000000E+00
  0.00000000E+00  0.00000000E+00  0.00000000E+00
  0.00000000E+00  0.00000000E+00  0.00000000E+00
  0.00000000E+00  0.00000000E+00  0.00000000E+00
  0.00000000E+00  0.00000000E+00  0.00000000E+00
  0.00000000E+00  0.00000000E+00  0.00000000E+00
  0.00000000E+00  0.00000000E+00  0.00000000E+00
  0.00000000E+00  0.00000000E+00  0.00000000E+00
  0.00000000E+00  0.00000000E+00  0.00000000E+00
  0.00000000E+00  0.00000000E+00  0.00000000E+00
  0.00000000E+00  0.00000000E+00  0.00000000E+00
  0.00000000E+00  0.00000000E+00  0.00000000E+00
  0.00000000E+00  0.00000000E+00  0.00000000E+00
  0.00000000E+00  0.00000000E+00  0.00000000E+00
  0.00000000E+00  0.00000000E+00  0.00000000E+00
  0.00000000E+00  0.00000000E+00  0.00000000E+00
  0.00000000E+00  0.00000000E+00  0.00000000E+00
  0.00000000E+00  0.00000000E+00  0.00000000E+00
  0.00000000E+00  0.00000000E+00  0.00000000E+00
  0.00000000E+00  0.00000000E+00  0.00000000E+00
  0.00000000E+00  0.00000000E+00  0.00000000E+00
  0.00000000E+00  0.00000000E+00  0.00000000E+00
  0.00000000E+00  0.00000000E+00  0.00000000E+00
  0.00000000E+00  0.00000000E+00  0.00000000E+00
  0.00000000E+00  0.00000000E+00  0.00000000E+00
  0.00000000E+00  0.00000000E+00  0.00000000E+00
  0.00000000E+00  0.00000000E+00  0.00000000E+00
  0.00000000E+00  0.00000000E+00  0.00000000E+00
  0.00000000E+00  0.00000000E+00  0.00000000E+00
  0.00000000E+00  0.00000000E+00  0.00000000E+00
  0.00000000E+00  0.00000000E+00  0.00000000E+00
  0.00000000E+00  0.00000000E+00  0.00000000E+00
  0.00000000E+00  0.00000000E+00  0.00000000E+00
  0.00000000E+00  0.00000000E+00  0.00000000E+00
  0.00000000E+00  0.00000000E+00  0.00000000E+00
  0.00000000E+00  0.00000000E+00  0.00000000E+00
  0.00000000E+00  0.00000000E+00  0.00000000E+00
  0.00000000E+00  0.00000000E+00  0.00000000E+00
  0.00000000E+00  0.00000000E+00  0.00000000E+00
  0.00000000E+00  0.00000000E+00  0.00000000E+00
  0.00000000E+00  0.00000000E+00  0.00000000E+00
  0.00000000E+00  0.00000000E+00  0.00000000E+00
  0.00000000E+00  0.00000000E+00  0.00000000E+00
  0.00000000E+00  0.00000000E+00  0.00000000E+00
  0.00000000E+00  0.00000000E+00  0.00000000E+00
  0.00000000E+00  0.00000000E+00  0.00000000E+00
  0.00000000E+00  0.00000000E+00  0.00000000E+00
  0.00000000E+00  0.00000000E+00  0.00000000E+00
  0.00000000E+00  0.00000000E+00  0.00000000E+00
  0.00000000E+00  0.00000000E+00  0.00000000E+00
  0.00000000E+00  0.00000000E+00  0.00000000E+00
  0.00000000E+00  0.00000000E+00  0.00000000E+00
  0.00000000E+00  0.00000000E+00  0.00000000E+00
  0.00000000E+00  0.00000000E+00  0.00000000E+00
  0.00000000E+00  0.00000000E+00  0.00000000E+00
  0.00000000E+00  0.00000000E+00  0.00000000E+00
  0.00000000E+00  0.00000000E+00  0.00000000E+00
  0.00000000E+00  0.00000000E+00  0.00000000E+00
  0.00000000E+00  0.00000000E+00  0.00000000E+00
  0.00000000E+00  0.00000000E+00  0.00000000E+00
  0.00000000E+00  0.00000000E+00  0.00000000E+00
  0.00000000E+00  0.00000000E+00  0.00000000E+00
  0.00000000E+00  0.00000000E+00  0.00000000E+00
  0.00000000E+00  0.00000000E+00  0.00000000E+00
  0.00000000E+00  0.00000000E+00  0.00000000E+00
  0.00000000E+00  0.00000000E+00  0.00000000E+00
  0.00000000E+00  0.00000000E+00  0.00000000E+00
  0.00000000E+00  0.00000000E+00  0.00000000E+00
  0.00000000E+00  0.00000000E+00  0.00000000E+00
  0.00000000E+00  0.00000000E+00  0.00000000E+00
  0.00000000E+00  0.00000000E+00  0.00000000E+00
  0.00000000E+00  0.00000000E+00  0.00000000E+00
  0.00000000E+00  0.00000000E+00  0.00000000E+00
  0.00000000E+00  0.00000000E+00  0.00000000E+00
  0.00000000E+00  0.00000000E+00  0.00000000E+00
  0.00000000E+00  0.00000000E+00  0.00000000E+00
  0.00000000E+00  0.00000000E+00  0.00000000E+00
  0.00000000E+00  0.00000000E+00  0.00000000E+00
  0.00000000E+00  0.00000000E+00  0.00000000E+00
  0.00000000E+00  0.00000000E+00  0.00000000E+00
  0.00000000E+00  0.00000000E+00  0.00000000E+00
  0.00000000E+00  0.00000000E+00  0.00000000E+00
  0.00000000E+00  0.00000000E+00  0.00000000E+00
  0.00000000E+00  0.00000000E+00  0.00000000E+00
  0.00000000E+00  0.00000000E+00  0.00000000E+00
  0.00000000E+00  0.00000000E+00  0.00000000E+00
  0.00000000E+00  0.00000000E+00  0.00000000E+00
  0.00000000E+00  0.00000000E+00  0.00000000E+00
  0.00000000E+00  0.00000000E+00  0.00000000E+00
  0.00000000E+00  0.00000000E+00  0.00000000E+00
  0.00000000E+00  0.00000000E+00  0.00000000E+00
  0.00000000E+00  0.00000000E+00  0.00000000E+00
  0.00000000E+00  0.00000000E+00  0.00000000E+00
  0.00000000E+00  0.00000000E+00  0.00000000E+00
  0.00000000E+00  0.00000000E+00  0.00000000E+00
  0.00000000E+00  0.00000000E+00  0.00000000E+00
  0.00000000E+00  0.00000000E+00  0.00000000E+00
  0.00000000E+00  0.00000000E+00  0.00000000E+00
  0.00000000E+00  0.00000000E+00  0.00000000E+00
  0.00000000E+00  0.00000000E+00  0.00000000E+00
  0.00000000E+00  0.00000000E+00  0.00000000E+00
  0.00000000E+00  0.00000000E+00  0.00000000E+00
  0.00000000E+00  0.00000000E+00  0.00000000E+00
  0.00000000E+00  0.00000000E+00  0.00000000E+00
  0.00000000E+00  0.00000000E+00  0.00000000E+00
  0.00000000E+00  0.00000000E+00  0.00000000E+00
  0.00000000E+00  0.00000000E+00  0.00000000E+00
  0.00000000E+00  0.00000000E+00  0.00000000E+00
  0.00000000E+00  0.00000000E+00  0.00000000E+00
  0.00000000E+00  0.00000000E+00  0.00000000E+00
  0.00000000E+00  0.00000000E+00  0.00000000E+00
  0.00000000E+00  0.00000000E+00  0.00000000E+00
  0.00000000E+00  0.00000000E+00  0.00000000E+00
  0.00000000E+00  0.00000000E+00  0.00000000E+00
  0.00000000E+00  0.00000000E+00  0.00000000E+00
  0.00000000E+00  0.00000000E+00  0.00000000E+00
  0.00000000E+00  0.00000000E+00  0.00000000E+00
  0.00000000E+00  0.00000000E+00  0.00000000E+00
  0.00000000E+00  0.00000000E+00  0.00000000E+00
  0.00000000E+00  0.00000000E+00  0.00000000E+00
  0.00000000E+00  0.00000000E+00  0.00000000E+00
  0.00000000E+00  0.00000000E+00  0.00000000E+00
  0.00000000E+00  0.00000000E+00  0.00000000E+00
  0.00000000E+00  0.00000000E+00  0.00000000E+00
  0.00000000E+00  0.00000000E+00  0.00000000E+00
  0.00000000E+00  0.00000000E+00  0.00000000E+00
  0.00000000E+00  0.00000000E+00  0.00000000E+00
  0.00000000E+00  0.00000000E+00  0.00000000E+00
  0.00000000E+00  0.00000000E+00  0.00000000E+00
  0.00000000E+00  0.00000000E+00  0.00000000E+00
  0.00000000E+00  0.00000000E+00  0.00000000E+00
  0.00000000E+00  0.00000000E+00  0.00000000E+00
  0.00000000E+00  0.00000000E+00  0.00000000E+00
  0.00000000E+00  0.00000000E+00  0.00000000E+00
  0.00000000E+00  0.00000000E+00  0.00000000E+00
  0.00000000E+00  0.00000000E+00  0.00000000E+00
  0.00000000E+00  0.00000000E+00  0.00000000E+00
  0.00000000E+00  0.00000000E+00  0.00000000E+00
  0.00000000E+00  0.00000000E+00  0.00000000E+00
  0.00000000E+00  0.00000000E+00  0.00000000E+00
  0.00000000E+00  0.00000000E+00  0.00000000E+00
  0.00000000E+00  0.00000000E+00  0.00000000E+00
  0.00000000E+00  0.00000000E+00  0.00000000E+00
  0.00000000E+00  0.00000000E+00  0.00000000E+00
  0.00000000E+00  0.00000000E+00  0.00000000E+00
  0.00000000E+00  0.00000000E+00  0.00000000E+00
  0.00000000E+00  0.00000000E+00  0.00000000E+00
  0.00000000E+00  0.00000000E+00  0.00000000E+00
  0.00000000E+00  0.00000000E+00  0.00000000E+00
  0.00000000E+00  0.00000000E+00  0.00000000E+00
  0.00000000E+00  0.00000000E+00  0.00000000E+00
  0.00000000E+00  0.00000000E+00  0.00000000E+00
  0.00000000E+00  0.00000000E+00  0.00000000E+00
  0.00000000E+00  0.00000000E+00  0.00000000E+00
  0.00000000E+00  0.00000000E+00  0.00000000E+00
  0.00000000E+00  0.00000000E+00  0.00000000E+00
  0.00000000E+00  0.00000000E+00  0.00000000E+00
  0.00000000E+00  0.00000000E+00  0.00000000E+00
  0.00000000E+00  0.00000000E+00  0.00000000E+00
  0.00000000E+00  0.00000000E+00  0.00000000E+00
  0.00000000E+00  0.00000000E+00  0.00000000E+00
  0.00000000E+00  0.00000000E+00  0.00000000E+00
  0.00000000E+00  0.00000000E+00  0.00000000E+00
  0.00000000E+00  0.00000000E+00  0.00000000E+00
  0.00000000E+00  0.00000000E+00  0.00000000E+00
  0.00000000E+00  0.00000000E+00  0.00000000E+00
  0.00000000E+00  0.00000000E+00  0.00000000E+00
  0.00000000E+00  0.00000000E+00  0.00000000E+00
  0.00000000E+00  0.00000000E+00  0.00000000E+00
  0.00000000E+00  0.00000000E+00  0.00000000E+00
  0.00000000E+00  0.00000000E+00  0.00000000E+00
  0.00000000E+00  0.00000000E+00  0.00000000E+00
  0.00000000E+00  0.00000000E+00  0.00000000E+00
  0.00000000E+00  0.00000000E+00  0.00000000E+00
  0.00000000E+00  0.00000000E+00  0.00000000E+00
  0.00000000E+00  0.00000000E+00  0.00000000E+00
  0.00000000E+00  0.00000000E+00  0.00000000E+00
  0.00000000E+00  0.00000000E+00  0.00000000E+00
  0.00000000E+00  0.00000000E+00  0.00000000E+00
  0.00000000E+00  0.00000000E+00  0.00000000E+00
  0.00000000E+00  0.00000000E+00  0.00000000E+00
  0.00000000E+00  0.00000000E+00  0.00000000E+00
  0.00000000E+00  0.00000000E+00  0.00000000E+00
  0.00000000E+00  0.00000000E+00  0.00000000E+00
  0.00000000E+00  0.00000000E+00  0.00000000E+00
  0.00000000E+00  0.00000000E+00  0.00000000E+00
  0.00000000E+00  0.00000000E+00  0.00000000E+00
  0.00000000E+00  0.00000000E+00  0.00000000E+00
  0.00000000E+00  0.00000000E+00  0.00000000E+00
  0.00000000E+00  0.00000000E+00  0.00000000E+00
  0.00000000E+00  0.00000000E+00  0.00000000E+00
  0.00000000E+00  0.00000000E+00  0.00000000E+00
  0.00000000E+00  0.00000000E+00  0.00000000E+00
  0.00000000E+00  0.00000000E+00  0.00000000E+00
  0.00000000E+00  0.00000000E+00  0.00000000E+00
  0.00000000E+00  0.00000000E+00  0.00000000E+00
  0.00000000E+00  0.00000000E+00  0.00000000E+00
  0.00000000E+00  0.00000000E+00  0.00000000E+00
  0.00000000E+00  0.00000000E+00  0.00000000E+00
  0.00000000E+00  0.00000000E+00  0.00000000E+00
  0.00000000E+00  0.00000000E+00  0.00000000E+00
  0.00000000E+00  0.00000000E+00  0.00000000E+00
  0.00000000E+00  0.00000000E+00  0.00000000E+00
  0.00000000E+00  0.00000000E+00  0.00000000E+00
  0.00000000E+00  0.00000000E+00  0.00000000E+00
