Ni4 O4                                  
    1.000000000000000     
    12.6498584747000002    0.0000000000000000    0.0000000000000000
     0.0000000000000000   12.6498584747000002    0.0000000000000000
     0.0000000000000000    0.0000000000000000   12.6498584747000002
   Ni   O 
   108   108
Direct
  0.0000000000000000  0.0000000000000000  0.0000000000000000
  0.0000000000000000  0.0000000000000000  0.3333333429999996
  0.0000000000000000  0.0000000000000000  0.6666666870000029
  0.0000000000000000  0.3333333429999996  0.0000000000000000
  0.0000000000000000  0.3333333429999996  0.3333333429999996
  0.0000000000000000  0.3333333429999996  0.6666666870000029
  0.0000000000000000  0.6666666870000029  0.0000000000000000
  0.0000000000000000  0.6666666870000029  0.3333333429999996
  0.0000000000000000  0.6666666870000029  0.6666666870000029
  0.3333333429999996  0.0000000000000000  0.0000000000000000
  0.3333333429999996  0.0000000000000000  0.3333333429999996
  0.3333333429999996  0.0000000000000000  0.6666666870000029
  0.3333333429999996  0.3333333429999996  0.0000000000000000
  0.3333333429999996  0.3333333429999996  0.3333333429999996
  0.3333333429999996  0.3333333429999996  0.6666666870000029
  0.3333333429999996  0.6666666870000029  0.0000000000000000
  0.3333333429999996  0.6666666870000029  0.3333333429999996
  0.3333333429999996  0.6666666870000029  0.6666666870000029
  0.6666666870000029  0.0000000000000000  0.0000000000000000
  0.6666666870000029  0.0000000000000000  0.3333333429999996
  0.6666666870000029  0.0000000000000000  0.6666666870000029
  0.6666666870000029  0.3333333429999996  0.0000000000000000
  0.6666666870000029  0.3333333429999996  0.3333333429999996
  0.6666666870000029  0.3333333429999996  0.6666666870000029
  0.6666666870000029  0.6666666870000029  0.0000000000000000
  0.6666666870000029  0.6666666870000029  0.3333333429999996
  0.6666666870000029  0.6666666870000029  0.6666666870000029
  0.0000000000000000  0.1666666719999981  0.1666666719999981
  0.0000000000000000  0.1666666719999981  0.5000000000000000
  0.0000000000000000  0.1666666719999981  0.8333333129999971
  0.0000000000000000  0.5000000000000000  0.1666666719999981
  0.0000000000000000  0.5000000000000000  0.5000000000000000
  0.0000000000000000  0.5000000000000000  0.8333333129999971
  0.0000000000000000  0.8333333129999971  0.1666666719999981
  0.0000000000000000  0.8333333129999971  0.5000000000000000
  0.0000000000000000  0.8333333129999971  0.8333333129999971
  0.3333333429999996  0.1666666719999981  0.1666666719999981
  0.3333333429999996  0.1666666719999981  0.5000000000000000
  0.3333333429999996  0.1666666719999981  0.8333333129999971
  0.3333333429999996  0.5000000000000000  0.1666666719999981
  0.3333333429999996  0.5000000000000000  0.5000000000000000
  0.3333333429999996  0.5000000000000000  0.8333333129999971
  0.3333333429999996  0.8333333129999971  0.1666666719999981
  0.3333333429999996  0.8333333129999971  0.5000000000000000
  0.3333333429999996  0.8333333129999971  0.8333333129999971
  0.6666666870000029  0.1666666719999981  0.1666666719999981
  0.6666666870000029  0.1666666719999981  0.5000000000000000
  0.6666666870000029  0.1666666719999981  0.8333333129999971
  0.6666666870000029  0.5000000000000000  0.1666666719999981
  0.6666666870000029  0.5000000000000000  0.5000000000000000
  0.6666666870000029  0.5000000000000000  0.8333333129999971
  0.6666666870000029  0.8333333129999971  0.1666666719999981
  0.6666666870000029  0.8333333129999971  0.5000000000000000
  0.6666666870000029  0.8333333129999971  0.8333333129999971
  0.1666666719999981  0.0000000000000000  0.1666666719999981
  0.1666666719999981  0.0000000000000000  0.5000000000000000
  0.1666666719999981  0.0000000000000000  0.8333333129999971
  0.1666666719999981  0.3333333429999996  0.1666666719999981
  0.1666666719999981  0.3333333429999996  0.5000000000000000
  0.1666666719999981  0.3333333429999996  0.8333333129999971
  0.1666666719999981  0.6666666870000029  0.1666666719999981
  0.1666666719999981  0.6666666870000029  0.5000000000000000
  0.1666666719999981  0.6666666870000029  0.8333333129999971
  0.5000000000000000  0.0000000000000000  0.1666666719999981
  0.5000000000000000  0.0000000000000000  0.5000000000000000
  0.5000000000000000  0.0000000000000000  0.8333333129999971
  0.5000000000000000  0.3333333429999996  0.1666666719999981
  0.5000000000000000  0.3333333429999996  0.5000000000000000
  0.5000000000000000  0.3333333429999996  0.8333333129999971
  0.5000000000000000  0.6666666870000029  0.1666666719999981
  0.5000000000000000  0.6666666870000029  0.5000000000000000
  0.5000000000000000  0.6666666870000029  0.8333333129999971
  0.8333333129999971  0.0000000000000000  0.1666666719999981
  0.8333333129999971  0.0000000000000000  0.5000000000000000
  0.8333333129999971  0.0000000000000000  0.8333333129999971
  0.8333333129999971  0.3333333429999996  0.1666666719999981
  0.8333333129999971  0.3333333429999996  0.5000000000000000
  0.8333333129999971  0.3333333429999996  0.8333333129999971
  0.8333333129999971  0.6666666870000029  0.1666666719999981
  0.8333333129999971  0.6666666870000029  0.5000000000000000
  0.8333333129999971  0.6666666870000029  0.8333333129999971
  0.1666666719999981  0.1666666719999981  0.0000000000000000
  0.1666666719999981  0.1666666719999981  0.3333333429999996
  0.1666666719999981  0.1666666719999981  0.6666666870000029
  0.1666666719999981  0.5000000000000000  0.0000000000000000
  0.1666666719999981  0.5000000000000000  0.3333333429999996
  0.1666666719999981  0.5000000000000000  0.6666666870000029
  0.1666666719999981  0.8333333129999971  0.0000000000000000
  0.1666666719999981  0.8333333129999971  0.3333333429999996
  0.1666666719999981  0.8333333129999971  0.6666666870000029
  0.5000000000000000  0.1666666719999981  0.0000000000000000
  0.5000000000000000  0.1666666719999981  0.3333333429999996
  0.5000000000000000  0.1666666719999981  0.6666666870000029
  0.5000000000000000  0.5000000000000000  0.0000000000000000
  0.5000000000000000  0.5000000000000000  0.3333333429999996
  0.5000000000000000  0.5000000000000000  0.6666666870000029
  0.5000000000000000  0.8333333129999971  0.0000000000000000
  0.5000000000000000  0.8333333129999971  0.3333333429999996
  0.5000000000000000  0.8333333129999971  0.6666666870000029
  0.8333333129999971  0.1666666719999981  0.0000000000000000
  0.8333333129999971  0.1666666719999981  0.3333333429999996
  0.8333333129999971  0.1666666719999981  0.6666666870000029
  0.8333333129999971  0.5000000000000000  0.0000000000000000
  0.8333333129999971  0.5000000000000000  0.3333333429999996
  0.8333333129999971  0.5000000000000000  0.6666666870000029
  0.8333333129999971  0.8333333129999971  0.0000000000000000
  0.8333333129999971  0.8333333129999971  0.3333333429999996
  0.8333333129999971  0.8333333129999971  0.6666666870000029
  0.1666666719999981  0.0000000000000000  0.0000000000000000
  0.1666666719999981  0.0000000000000000  0.3333333429999996
  0.1666666719999981  0.0000000000000000  0.6666666870000029
  0.1666666719999981  0.3333333429999996  0.0000000000000000
  0.1666666719999981  0.3333333429999996  0.3333333429999996
  0.1666666719999981  0.3333333429999996  0.6666666870000029
  0.1666666719999981  0.6666666870000029  0.0000000000000000
  0.1666666719999981  0.6666666870000029  0.3333333429999996
  0.1666666719999981  0.6666666870000029  0.6666666870000029
  0.5000000000000000  0.0000000000000000  0.0000000000000000
  0.5000000000000000  0.0000000000000000  0.3333333429999996
  0.5000000000000000  0.0000000000000000  0.6666666870000029
  0.5000000000000000  0.3333333429999996  0.0000000000000000
  0.5000000000000000  0.3333333429999996  0.3333333429999996
  0.5000000000000000  0.3333333429999996  0.6666666870000029
  0.5000000000000000  0.6666666870000029  0.0000000000000000
  0.5000000000000000  0.6666666870000029  0.3333333429999996
  0.5000000000000000  0.6666666870000029  0.6666666870000029
  0.8333333129999971  0.0000000000000000  0.0000000000000000
  0.8333333129999971  0.0000000000000000  0.3333333429999996
  0.8333333129999971  0.0000000000000000  0.6666666870000029
  0.8333333129999971  0.3333333429999996  0.0000000000000000
  0.8333333129999971  0.3333333429999996  0.3333333429999996
  0.8333333129999971  0.3333333429999996  0.6666666870000029
  0.8333333129999971  0.6666666870000029  0.0000000000000000
  0.8333333129999971  0.6666666870000029  0.3333333429999996
  0.8333333129999971  0.6666666870000029  0.6666666870000029
  0.1666666719999981  0.1666666719999981  0.1666666719999981
  0.1666666719999981  0.1666666719999981  0.5000000000000000
  0.1666666719999981  0.1666666719999981  0.8333333129999971
  0.1666666719999981  0.5000000000000000  0.1666666719999981
  0.1666666719999981  0.5000000000000000  0.5000000000000000
  0.1666666719999981  0.5000000000000000  0.8333333129999971
  0.1666666719999981  0.8333333129999971  0.1666666719999981
  0.1666666719999981  0.8333333129999971  0.5000000000000000
  0.1666666719999981  0.8333333129999971  0.8333333129999971
  0.5000000000000000  0.1666666719999981  0.1666666719999981
  0.5000000000000000  0.1666666719999981  0.5000000000000000
  0.5000000000000000  0.1666666719999981  0.8333333129999971
  0.5000000000000000  0.5000000000000000  0.1666666719999981
  0.5000000000000000  0.5000000000000000  0.5000000000000000
  0.5000000000000000  0.5000000000000000  0.8333333129999971
  0.5000000000000000  0.8333333129999971  0.1666666719999981
  0.5000000000000000  0.8333333129999971  0.5000000000000000
  0.5000000000000000  0.8333333129999971  0.8333333129999971
  0.8333333129999971  0.1666666719999981  0.1666666719999981
  0.8333333129999971  0.1666666719999981  0.5000000000000000
  0.8333333129999971  0.1666666719999981  0.8333333129999971
  0.8333333129999971  0.5000000000000000  0.1666666719999981
  0.8333333129999971  0.5000000000000000  0.5000000000000000
  0.8333333129999971  0.5000000000000000  0.8333333129999971
  0.8333333129999971  0.8333333129999971  0.1666666719999981
  0.8333333129999971  0.8333333129999971  0.5000000000000000
  0.8333333129999971  0.8333333129999971  0.8333333129999971
  0.0000000000000000  0.0000000000000000  0.1666666719999981
  0.0000000000000000  0.0000000000000000  0.5000000000000000
  0.0000000000000000  0.0000000000000000  0.8333333129999971
  0.0000000000000000  0.3333333429999996  0.1666666719999981
  0.0000000000000000  0.3333333429999996  0.5000000000000000
  0.0000000000000000  0.3333333429999996  0.8333333129999971
  0.0000000000000000  0.6666666870000029  0.1666666719999981
  0.0000000000000000  0.6666666870000029  0.5000000000000000
  0.0000000000000000  0.6666666870000029  0.8333333129999971
  0.3333333429999996  0.0000000000000000  0.1666666719999981
  0.3333333429999996  0.0000000000000000  0.5000000000000000
  0.3333333429999996  0.0000000000000000  0.8333333129999971
  0.3333333429999996  0.3333333429999996  0.1666666719999981
  0.3333333429999996  0.3333333429999996  0.5000000000000000
  0.3333333429999996  0.3333333429999996  0.8333333129999971
  0.3333333429999996  0.6666666870000029  0.1666666719999981
  0.3333333429999996  0.6666666870000029  0.5000000000000000
  0.3333333429999996  0.6666666870000029  0.8333333129999971
  0.6666666870000029  0.0000000000000000  0.1666666719999981
  0.6666666870000029  0.0000000000000000  0.5000000000000000
  0.6666666870000029  0.0000000000000000  0.8333333129999971
  0.6666666870000029  0.3333333429999996  0.1666666719999981
  0.6666666870000029  0.3333333429999996  0.5000000000000000
  0.6666666870000029  0.3333333429999996  0.8333333129999971
  0.6666666870000029  0.6666666870000029  0.1666666719999981
  0.6666666870000029  0.6666666870000029  0.5000000000000000
  0.6666666870000029  0.6666666870000029  0.8333333129999971
  0.0000000000000000  0.1666666719999981  0.0000000000000000
  0.0000000000000000  0.1666666719999981  0.3333333429999996
  0.0000000000000000  0.1666666719999981  0.6666666870000029
  0.0000000000000000  0.5000000000000000  0.0000000000000000
  0.0000000000000000  0.5000000000000000  0.3333333429999996
  0.0000000000000000  0.5000000000000000  0.6666666870000029
  0.0000000000000000  0.8333333129999971  0.0000000000000000
  0.0000000000000000  0.8333333129999971  0.3333333429999996
  0.0000000000000000  0.8333333129999971  0.6666666870000029
  0.3333333429999996  0.1666666719999981  0.0000000000000000
  0.3333333429999996  0.1666666719999981  0.3333333429999996
  0.3333333429999996  0.1666666719999981  0.6666666870000029
  0.3333333429999996  0.5000000000000000  0.0000000000000000
  0.3333333429999996  0.5000000000000000  0.3333333429999996
  0.3333333429999996  0.5000000000000000  0.6666666870000029
  0.3333333429999996  0.8333333129999971  0.0000000000000000
  0.3333333429999996  0.8333333129999971  0.3333333429999996
  0.3333333429999996  0.8333333129999971  0.6666666870000029
  0.6666666870000029  0.1666666719999981  0.0000000000000000
  0.6666666870000029  0.1666666719999981  0.3333333429999996
  0.6666666870000029  0.1666666719999981  0.6666666870000029
  0.6666666870000029  0.5000000000000000  0.0000000000000000
  0.6666666870000029  0.5000000000000000  0.3333333429999996
  0.6666666870000029  0.5000000000000000  0.6666666870000029
  0.6666666870000029  0.8333333129999971  0.0000000000000000
  0.6666666870000029  0.8333333129999971  0.3333333429999996
  0.6666666870000029  0.8333333129999971  0.6666666870000029
 
  0.00000000E+00  0.00000000E+00  0.00000000E+00
  0.00000000E+00  0.00000000E+00  0.00000000E+00
  0.00000000E+00  0.00000000E+00  0.00000000E+00
  0.00000000E+00  0.00000000E+00  0.00000000E+00
  0.00000000E+00  0.00000000E+00  0.00000000E+00
  0.00000000E+00  0.00000000E+00  0.00000000E+00
  0.00000000E+00  0.00000000E+00  0.00000000E+00
  0.00000000E+00  0.00000000E+00  0.00000000E+00
  0.00000000E+00  0.00000000E+00  0.00000000E+00
  0.00000000E+00  0.00000000E+00  0.00000000E+00
  0.00000000E+00  0.00000000E+00  0.00000000E+00
  0.00000000E+00  0.00000000E+00  0.00000000E+00
  0.00000000E+00  0.00000000E+00  0.00000000E+00
  0.00000000E+00  0.00000000E+00  0.00000000E+00
  0.00000000E+00  0.00000000E+00  0.00000000E+00
  0.00000000E+00  0.00000000E+00  0.00000000E+00
  0.00000000E+00  0.00000000E+00  0.00000000E+00
  0.00000000E+00  0.00000000E+00  0.00000000E+00
  0.00000000E+00  0.00000000E+00  0.00000000E+00
  0.00000000E+00  0.00000000E+00  0.00000000E+00
  0.00000000E+00  0.00000000E+00  0.00000000E+00
  0.00000000E+00  0.00000000E+00  0.00000000E+00
  0.00000000E+00  0.00000000E+00  0.00000000E+00
  0.00000000E+00  0.00000000E+00  0.00000000E+00
  0.00000000E+00  0.00000000E+00  0.00000000E+00
  0.00000000E+00  0.00000000E+00  0.00000000E+00
  0.00000000E+00  0.00000000E+00  0.00000000E+00
  0.00000000E+00  0.00000000E+00  0.00000000E+00
  0.00000000E+00  0.00000000E+00  0.00000000E+00
  0.00000000E+00  0.00000000E+00  0.00000000E+00
  0.00000000E+00  0.00000000E+00  0.00000000E+00
  0.00000000E+00  0.00000000E+00  0.00000000E+00
  0.00000000E+00  0.00000000E+00  0.00000000E+00
  0.00000000E+00  0.00000000E+00  0.00000000E+00
  0.00000000E+00  0.00000000E+00  0.00000000E+00
  0.00000000E+00  0.00000000E+00  0.00000000E+00
  0.00000000E+00  0.00000000E+00  0.00000000E+00
  0.00000000E+00  0.00000000E+00  0.00000000E+00
  0.00000000E+00  0.00000000E+00  0.00000000E+00
  0.00000000E+00  0.00000000E+00  0.00000000E+00
  0.00000000E+00  0.00000000E+00  0.00000000E+00
  0.00000000E+00  0.00000000E+00  0.00000000E+00
  0.00000000E+00  0.00000000E+00  0.00000000E+00
  0.00000000E+00  0.00000000E+00  0.00000000E+00
  0.00000000E+00  0.00000000E+00  0.00000000E+00
  0.00000000E+00  0.00000000E+00  0.00000000E+00
  0.00000000E+00  0.00000000E+00  0.00000000E+00
  0.00000000E+00  0.00000000E+00  0.00000000E+00
  0.00000000E+00  0.00000000E+00  0.00000000E+00
  0.00000000E+00  0.00000000E+00  0.00000000E+00
  0.00000000E+00  0.00000000E+00  0.00000000E+00
  0.00000000E+00  0.00000000E+00  0.00000000E+00
  0.00000000E+00  0.00000000E+00  0.00000000E+00
  0.00000000E+00  0.00000000E+00  0.00000000E+00
  0.00000000E+00  0.00000000E+00  0.00000000E+00
  0.00000000E+00  0.00000000E+00  0.00000000E+00
  0.00000000E+00  0.00000000E+00  0.00000000E+00
  0.00000000E+00  0.00000000E+00  0.00000000E+00
  0.00000000E+00  0.00000000E+00  0.00000000E+00
  0.00000000E+00  0.00000000E+00  0.00000000E+00
  0.00000000E+00  0.00000000E+00  0.00000000E+00
  0.00000000E+00  0.00000000E+00  0.00000000E+00
  0.00000000E+00  0.00000000E+00  0.00000000E+00
  0.00000000E+00  0.00000000E+00  0.00000000E+00
  0.00000000E+00  0.00000000E+00  0.00000000E+00
  0.00000000E+00  0.00000000E+00  0.00000000E+00
  0.00000000E+00  0.00000000E+00  0.00000000E+00
  0.00000000E+00  0.00000000E+00  0.00000000E+00
  0.00000000E+00  0.00000000E+00  0.00000000E+00
  0.00000000E+00  0.00000000E+00  0.00000000E+00
  0.00000000E+00  0.00000000E+00  0.00000000E+00
  0.00000000E+00  0.00000000E+00  0.00000000E+00
  0.00000000E+00  0.00000000E+00  0.00000000E+00
  0.00000000E+00  0.00000000E+00  0.00000000E+00
  0.00000000E+00  0.00000000E+00  0.00000000E+00
  0.00000000E+00  0.00000000E+00  0.00000000E+00
  0.00000000E+00  0.00000000E+00  0.00000000E+00
  0.00000000E+00  0.00000000E+00  0.00000000E+00
  0.00000000E+00  0.00000000E+00  0.00000000E+00
  0.00000000E+00  0.00000000E+00  0.00000000E+00
  0.00000000E+00  0.00000000E+00  0.00000000E+00
  0.00000000E+00  0.00000000E+00  0.00000000E+00
  0.00000000E+00  0.00000000E+00  0.00000000E+00
  0.00000000E+00  0.00000000E+00  0.00000000E+00
  0.00000000E+00  0.00000000E+00  0.00000000E+00
  0.00000000E+00  0.00000000E+00  0.00000000E+00
  0.00000000E+00  0.00000000E+00  0.00000000E+00
  0.00000000E+00  0.00000000E+00  0.00000000E+00
  0.00000000E+00  0.00000000E+00  0.00000000E+00
  0.00000000E+00  0.00000000E+00  0.00000000E+00
  0.00000000E+00  0.00000000E+00  0.00000000E+00
  0.00000000E+00  0.00000000E+00  0.00000000E+00
  0.00000000E+00  0.00000000E+00  0.00000000E+00
  0.00000000E+00  0.00000000E+00  0.00000000E+00
  0.00000000E+00  0.00000000E+00  0.00000000E+00
  0.00000000E+00  0.00000000E+00  0.00000000E+00
  0.00000000E+00  0.00000000E+00  0.00000000E+00
  0.00000000E+00  0.00000000E+00  0.00000000E+00
  0.00000000E+00  0.00000000E+00  0.00000000E+00
  0.00000000E+00  0.00000000E+00  0.00000000E+00
  0.00000000E+00  0.00000000E+00  0.00000000E+00
  0.00000000E+00  0.00000000E+00  0.00000000E+00
  0.00000000E+00  0.00000000E+00  0.00000000E+00
  0.00000000E+00  0.00000000E+00  0.00000000E+00
  0.00000000E+00  0.00000000E+00  0.00000000E+00
  0.00000000E+00  0.00000000E+00  0.00000000E+00
  0.00000000E+00  0.00000000E+00  0.00000000E+00
  0.00000000E+00  0.00000000E+00  0.00000000E+00
  0.00000000E+00  0.00000000E+00  0.00000000E+00
  0.00000000E+00  0.00000000E+00  0.00000000E+00
  0.00000000E+00  0.00000000E+00  0.00000000E+00
  0.00000000E+00  0.00000000E+00  0.00000000E+00
  0.00000000E+00  0.00000000E+00  0.00000000E+00
  0.00000000E+00  0.00000000E+00  0.00000000E+00
  0.00000000E+00  0.00000000E+00  0.00000000E+00
  0.00000000E+00  0.00000000E+00  0.00000000E+00
  0.00000000E+00  0.00000000E+00  0.00000000E+00
  0.00000000E+00  0.00000000E+00  0.00000000E+00
  0.00000000E+00  0.00000000E+00  0.00000000E+00
  0.00000000E+00  0.00000000E+00  0.00000000E+00
  0.00000000E+00  0.00000000E+00  0.00000000E+00
  0.00000000E+00  0.00000000E+00  0.00000000E+00
  0.00000000E+00  0.00000000E+00  0.00000000E+00
  0.00000000E+00  0.00000000E+00  0.00000000E+00
  0.00000000E+00  0.00000000E+00  0.00000000E+00
  0.00000000E+00  0.00000000E+00  0.00000000E+00
  0.00000000E+00  0.00000000E+00  0.00000000E+00
  0.00000000E+00  0.00000000E+00  0.00000000E+00
  0.00000000E+00  0.00000000E+00  0.00000000E+00
  0.00000000E+00  0.00000000E+00  0.00000000E+00
  0.00000000E+00  0.00000000E+00  0.00000000E+00
  0.00000000E+00  0.00000000E+00  0.00000000E+00
  0.00000000E+00  0.00000000E+00  0.00000000E+00
  0.00000000E+00  0.00000000E+00  0.00000000E+00
  0.00000000E+00  0.00000000E+00  0.00000000E+00
  0.00000000E+00  0.00000000E+00  0.00000000E+00
  0.00000000E+00  0.00000000E+00  0.00000000E+00
  0.00000000E+00  0.00000000E+00  0.00000000E+00
  0.00000000E+00  0.00000000E+00  0.00000000E+00
  0.00000000E+00  0.00000000E+00  0.00000000E+00
  0.00000000E+00  0.00000000E+00  0.00000000E+00
  0.00000000E+00  0.00000000E+00  0.00000000E+00
  0.00000000E+00  0.00000000E+00  0.00000000E+00
  0.00000000E+00  0.00000000E+00  0.00000000E+00
  0.00000000E+00  0.00000000E+00  0.00000000E+00
  0.00000000E+00  0.00000000E+00  0.00000000E+00
  0.00000000E+00  0.00000000E+00  0.00000000E+00
  0.00000000E+00  0.00000000E+00  0.00000000E+00
  0.00000000E+00  0.00000000E+00  0.00000000E+00
  0.00000000E+00  0.00000000E+00  0.00000000E+00
  0.00000000E+00  0.00000000E+00  0.00000000E+00
  0.00000000E+00  0.00000000E+00  0.00000000E+00
  0.00000000E+00  0.00000000E+00  0.00000000E+00
  0.00000000E+00  0.00000000E+00  0.00000000E+00
  0.00000000E+00  0.00000000E+00  0.00000000E+00
  0.00000000E+00  0.00000000E+00  0.00000000E+00
  0.00000000E+00  0.00000000E+00  0.00000000E+00
  0.00000000E+00  0.00000000E+00  0.00000000E+00
  0.00000000E+00  0.00000000E+00  0.00000000E+00
  0.00000000E+00  0.00000000E+00  0.00000000E+00
  0.00000000E+00  0.00000000E+00  0.00000000E+00
  0.00000000E+00  0.00000000E+00  0.00000000E+00
  0.00000000E+00  0.00000000E+00  0.00000000E+00
  0.00000000E+00  0.00000000E+00  0.00000000E+00
  0.00000000E+00  0.00000000E+00  0.00000000E+00
  0.00000000E+00  0.00000000E+00  0.00000000E+00
  0.00000000E+00  0.00000000E+00  0.00000000E+00
  0.00000000E+00  0.00000000E+00  0.00000000E+00
  0.00000000E+00  0.00000000E+00  0.00000000E+00
  0.00000000E+00  0.00000000E+00  0.00000000E+00
  0.00000000E+00  0.00000000E+00  0.00000000E+00
  0.00000000E+00  0.00000000E+00  0.00000000E+00
  0.00000000E+00  0.00000000E+00  0.00000000E+00
  0.00000000E+00  0.00000000E+00  0.00000000E+00
  0.00000000E+00  0.00000000E+00  0.00000000E+00
  0.00000000E+00  0.00000000E+00  0.00000000E+00
  0.00000000E+00  0.00000000E+00  0.00000000E+00
  0.00000000E+00  0.00000000E+00  0.00000000E+00
  0.00000000E+00  0.00000000E+00  0.00000000E+00
  0.00000000E+00  0.00000000E+00  0.00000000E+00
  0.00000000E+00  0.00000000E+00  0.00000000E+00
  0.00000000E+00  0.00000000E+00  0.00000000E+00
  0.00000000E+00  0.00000000E+00  0.00000000E+00
  0.00000000E+00  0.00000000E+00  0.00000000E+00
  0.00000000E+00  0.00000000E+00  0.00000000E+00
  0.00000000E+00  0.00000000E+00  0.00000000E+00
  0.00000000E+00  0.00000000E+00  0.00000000E+00
  0.00000000E+00  0.00000000E+00  0.00000000E+00
  0.00000000E+00  0.00000000E+00  0.00000000E+00
  0.00000000E+00  0.00000000E+00  0.00000000E+00
  0.00000000E+00  0.00000000E+00  0.00000000E+00
  0.00000000E+00  0.00000000E+00  0.00000000E+00
  0.00000000E+00  0.00000000E+00  0.00000000E+00
  0.00000000E+00  0.00000000E+00  0.00000000E+00
  0.00000000E+00  0.00000000E+00  0.00000000E+00
  0.00000000E+00  0.00000000E+00  0.00000000E+00
  0.00000000E+00  0.00000000E+00  0.00000000E+00
  0.00000000E+00  0.00000000E+00  0.00000000E+00
  0.00000000E+00  0.00000000E+00  0.00000000E+00
  0.00000000E+00  0.00000000E+00  0.00000000E+00
  0.00000000E+00  0.00000000E+00  0.00000000E+00
  0.00000000E+00  0.00000000E+00  0.00000000E+00
  0.00000000E+00  0.00000000E+00  0.00000000E+00
  0.00000000E+00  0.00000000E+00  0.00000000E+00
  0.00000000E+00  0.00000000E+00  0.00000000E+00
  0.00000000E+00  0.00000000E+00  0.00000000E+00
  0.00000000E+00  0.00000000E+00  0.00000000E+00
  0.00000000E+00  0.00000000E+00  0.00000000E+00
  0.00000000E+00  0.00000000E+00  0.00000000E+00
  0.00000000E+00  0.00000000E+00  0.00000000E+00
  0.00000000E+00  0.00000000E+00  0.00000000E+00
  0.00000000E+00  0.00000000E+00  0.00000000E+00
  0.00000000E+00  0.00000000E+00  0.00000000E+00
  0.00000000E+00  0.00000000E+00  0.00000000E+00
  0.00000000E+00  0.00000000E+00  0.00000000E+00
  0.00000000E+00  0.00000000E+00  0.00000000E+00
