New structure
1.0
    14.5   0.0  0.0
    0.0  14.5   0.0
    0.0  0.0  14.5 
   O
  4
Cartesian
  0.000000000000000E+000  0.000000000000000E+000  0.000000000000000E+000
  1.2 0 0
  0.5 -0.6 2.5
  0.5  0.6 2.5
