Ni  O                                   
    1.000000000000000     
    15.1462217587961998    0.0000000000000000    0.0000000000000000
     7.5731108793980804   13.1170128144700993    0.0000000000000000
     0.0000000000000000    0.0000000000000000   40.0000000000000000
   Ni   O 
   252   256
Direct
  0.4447413008048314  0.4447413008048314  0.0586327440118770
  0.4432084984093106  0.7783957507953448  0.0599255628300367
  0.4447413008048314  0.1105173983903374  0.0586327440118770
  0.7783957507953448  0.4432084984093106  0.0599255628300367
  0.7783957507953448  0.7783957507953448  0.0599255628300367
  0.7790924642650956  0.1104537678674558  0.0594914224529473
  0.1105173983903374  0.4447413008048314  0.0586327440118770
  0.1104537678674558  0.7790924642650956  0.0594914224529473
  0.1104537678674558  0.1104537678674558  0.0594914224529473
  0.5571453141522236  0.5571453141522236  0.1171910080690920
  0.5571453141522236  0.8857093716955530  0.1171910080690920
  0.5536581100466836  0.2231709449766583  0.1104086076598339
  0.8857093716955530  0.5571453141522236  0.1171910080690920
  0.8900006518676618  0.8900006518676618  0.1135013341426250
  0.8900006518676618  0.2199986962646702  0.1135013341426250
  0.2231709449766583  0.5536581100466836  0.1104086076598339
  0.2199986962646703  0.8900006518676618  0.1135013341426250
  0.2231709449766583  0.2231709449766583  0.1104086076598339
  0.6666666666666643  0.6666666666666643  0.1703917418921209
  0.6650871653503644  0.0021062484352134  0.1693861850800597
  0.6650871653503644  0.3328065862144222  0.1693861850800597
  0.0021062484352134  0.6650871653503644  0.1693861850800597
  0.0000000000000000  0.0000000000000000  0.1750319797790366
  0.0021062484352134  0.3328065862144222  0.1693861850800597
  0.3328065862144222  0.6650871653503644  0.1693861850800597
  0.3328065862144222  0.0021062484352134  0.1693861850800597
  0.3333333333333357  0.3333333333333357  0.1742648725852491
  0.7773280892159448  0.7773280892159448  0.2265230720144801
  0.7780705487069166  0.1109647256465452  0.2258475519595380
  0.7773280892159448  0.4453438215681101  0.2265230720144801
  0.1109647256465452  0.7780705487069166  0.2258475519595380
  0.1109647256465452  0.1109647256465452  0.2258475519595380
  0.1129339561110061  0.4435330219444968  0.2266339145240912
  0.4453438215681101  0.7773280892159448  0.2265230720144801
  0.4435330219444968  0.1129339561110061  0.2266339145240912
  0.4435330219444968  0.4435330219444968  0.2266339145240912
  0.8888692180525118  0.8888692180525118  0.2794053186909766
  0.8888692180525118  0.2222615638949690  0.2794053186909766
  0.8883177301452223  0.5558411349273887  0.2794893453067341
  0.2222615638949690  0.8888692180525118  0.2794053186909766
  0.2224842743658428  0.2224842743658428  0.2795009005645834
  0.2224842743658428  0.5550314512683145  0.2795009005645834
  0.5558411349273887  0.8883177301452223  0.2794893453067341
  0.5550314512683145  0.2224842743658428  0.2795009005645834
  0.5558411349273887  0.5558411349273887  0.2794893453067341
  0.0000000000000000  0.0000000000000000  0.3241106269872719
 -0.0004233431432812  0.3332602629352797  0.3246871773470670
 -0.0004233431432812  0.6671630802080014  0.3246871773470670
  0.3332602629352797 -0.0004233431432812  0.3246871773470670
  0.3333333333333357  0.3333333333333357  0.3247244835669147
  0.3332602629352797  0.6671630802080014  0.3246871773470670
  0.6671630802080014 -0.0004233431432812  0.3246871773470670
  0.6671630802080014  0.3332602629352797  0.3246871773470670
  0.6666666666666643  0.6666666666666643  0.3240052770476898
  0.1123968703243165  0.1123968703243165  0.3708059620567143
  0.1119233999398214  0.4440383000300894  0.3697540752413577
  0.1123968703243165  0.7752062593513738  0.3708059620567143
  0.4440383000300894  0.1119233999398214  0.3697540752413577
  0.4440383000300894  0.4440383000300894  0.3697540752413577
  0.4473410733628542  0.7763294633185728  0.3706960482261559
  0.7752062593513738  0.1123968703243165  0.3708059620567143
  0.7763294633185728  0.4473410733628542  0.3706960482261559
  0.7763294633185728  0.7763294633185728  0.3706960482261559
  0.2783957507953446  0.2783957507953446  0.0599255628300367
  0.2790924642650956  0.6104537678674559  0.0594914224529473
  0.2783957507953446  0.9432084984093109  0.0599255628300367
  0.6104537678674559  0.2790924642650956  0.0594914224529473
  0.6104537678674559  0.6104537678674559  0.0594914224529473
  0.6105173983903373  0.9447413008048313  0.0586327440118770
  0.9432084984093109  0.2783957507953446  0.0599255628300367
  0.9447413008048313  0.6105173983903373  0.0586327440118770
  0.9447413008048313  0.9447413008048313  0.0586327440118770
  0.3900006518676613  0.3900006518676613  0.1135013341426250
  0.3900006518676613  0.7199986962646703  0.1135013341426250
  0.3857093716955530  0.0571453141522235  0.1171910080690920
  0.7199986962646703  0.3900006518676613  0.1135013341426250
  0.7231709449766583  0.7231709449766583  0.1104086076598339
  0.7231709449766583  0.0536581100466834  0.1104086076598339
  0.0571453141522235  0.3857093716955530  0.1171910080690920
  0.0536581100466834  0.7231709449766583  0.1104086076598339
  0.0571453141522235  0.0571453141522235  0.1171910080690920
  0.5000000000000000  0.5000000000000000  0.1750319797790366
  0.5021062484352133  0.8328065862144222  0.1693861850800597
  0.5021062484352133  0.1650871653503644  0.1693861850800597
  0.8328065862144222  0.5021062484352133  0.1693861850800597
  0.8333333333333357  0.8333333333333357  0.1742648725852491
  0.8328065862144222  0.1650871653503644  0.1693861850800597
  0.1650871653503644  0.5021062484352133  0.1693861850800597
  0.1650871653503644  0.8328065862144222  0.1693861850800597
  0.1666666666666643  0.1666666666666643  0.1703917418921209
  0.6109647256465452  0.6109647256465452  0.2258475519595380
  0.6129339561110063  0.9435330219444970  0.2266339145240912
  0.6109647256465452  0.2780705487069168  0.2258475519595380
  0.9435330219444970  0.6129339561110063  0.2266339145240912
  0.9435330219444970  0.9435330219444970  0.2266339145240912
  0.9453438215681100  0.2773280892159450  0.2265230720144801
  0.2780705487069168  0.6109647256465452  0.2258475519595380
  0.2773280892159450  0.9453438215681100  0.2265230720144801
  0.2773280892159450  0.2773280892159450  0.2265230720144801
  0.7224842743658431  0.7224842743658431  0.2795009005645834
  0.7224842743658431  0.0550314512683144  0.2795009005645834
  0.7222615638949692  0.3888692180525118  0.2794053186909766
  0.0550314512683144  0.7224842743658431  0.2795009005645834
  0.0558411349273889  0.0558411349273889  0.2794893453067341
  0.0558411349273889  0.3883177301452224  0.2794893453067341
  0.3888692180525118  0.7222615638949692  0.2794053186909766
  0.3883177301452224  0.0558411349273889  0.2794893453067341
  0.3888692180525118  0.3888692180525118  0.2794053186909766
  0.8333333333333357  0.8333333333333357  0.3247244835669147
  0.8332602629352794  0.1671630802080015  0.3246871773470670
  0.8332602629352794  0.4995766568567188  0.3246871773470670
  0.1671630802080015  0.8332602629352794  0.3246871773470670
  0.1666666666666643  0.1666666666666643  0.3240052770476898
  0.1671630802080015  0.4995766568567188  0.3246871773470670
  0.4995766568567188  0.8332602629352794  0.3246871773470670
  0.4995766568567188  0.1671630802080015  0.3246871773470670
  0.5000000000000000  0.5000000000000000  0.3241106269872719
  0.9440383000300896  0.9440383000300896  0.3697540752413577
  0.9473410733628541  0.2763294633185729  0.3706960482261559
  0.9440383000300896  0.6119233999398211  0.3697540752413577
  0.2763294633185729  0.9473410733628541  0.3706960482261559
  0.2763294633185729  0.2763294633185729  0.3706960482261559
  0.2752062593513740  0.6123968703243163  0.3708059620567143
  0.6119233999398211  0.9440383000300896  0.3697540752413577
  0.6123968703243163  0.2752062593513740  0.3708059620567143
  0.6123968703243163  0.6123968703243163  0.3708059620567143
  0.2783957507953446  0.4432084984093106  0.0599255628300367
  0.2783957507953446  0.7783957507953448  0.0599255628300367
  0.2790924642650956  0.1104537678674558  0.0594914224529473
  0.6105173983903373  0.4447413008048314  0.0586327440118770
  0.6104537678674559  0.7790924642650956  0.0594914224529473
  0.6104537678674559  0.1104537678674558  0.0594914224529473
  0.9447413008048313  0.4447413008048314  0.0586327440118770
  0.9432084984093109  0.7783957507953448  0.0599255628300367
  0.9447413008048313  0.1105173983903374  0.0586327440118770
  0.3857093716955530  0.5571453141522236  0.1171910080690920
  0.3900006518676613  0.8900006518676618  0.1135013341426250
  0.3900006518676613  0.2199986962646702  0.1135013341426250
  0.7231709449766583  0.5536581100466836  0.1104086076598339
  0.7199986962646703  0.8900006518676618  0.1135013341426250
  0.7231709449766583  0.2231709449766583  0.1104086076598339
  0.0571453141522235  0.5571453141522236  0.1171910080690920
  0.0571453141522235  0.8857093716955530  0.1171910080690920
  0.0536581100466834  0.2231709449766583  0.1104086076598339
  0.5021062484352133  0.6650871653503644  0.1693861850800597
  0.5000000000000000  0.0000000000000000  0.1750319797790366
  0.5021062484352133  0.3328065862144222  0.1693861850800597
  0.8328065862144222  0.6650871653503644  0.1693861850800597
  0.8328065862144222  0.0021062484352134  0.1693861850800597
  0.8333333333333357  0.3333333333333357  0.1742648725852491
  0.1666666666666643  0.6666666666666643  0.1703917418921209
  0.1650871653503644  0.0021062484352134  0.1693861850800597
  0.1650871653503644  0.3328065862144222  0.1693861850800597
  0.6109647256465452  0.7780705487069166  0.2258475519595380
  0.6109647256465452  0.1109647256465452  0.2258475519595380
  0.6129339561110063  0.4435330219444968  0.2266339145240912
  0.9453438215681100  0.7773280892159448  0.2265230720144801
  0.9435330219444970  0.1129339561110061  0.2266339145240912
  0.9435330219444970  0.4435330219444968  0.2266339145240912
  0.2773280892159450  0.7773280892159448  0.2265230720144801
  0.2780705487069168  0.1109647256465452  0.2258475519595380
  0.2773280892159450  0.4453438215681101  0.2265230720144801
  0.7222615638949692  0.8888692180525118  0.2794053186909766
  0.7224842743658431  0.2224842743658428  0.2795009005645834
  0.7224842743658431  0.5550314512683145  0.2795009005645834
  0.0558411349273889  0.8883177301452223  0.2794893453067341
  0.0550314512683144  0.2224842743658428  0.2795009005645834
  0.0558411349273889  0.5558411349273887  0.2794893453067341
  0.3888692180525118  0.8888692180525118  0.2794053186909766
  0.3888692180525118  0.2222615638949690  0.2794053186909766
  0.3883177301452224  0.5558411349273887  0.2794893453067341
  0.8332602629352794 -0.0004233431432812  0.3246871773470670
  0.8333333333333357  0.3333333333333357  0.3247244835669147
  0.8332602629352794  0.6671630802080014  0.3246871773470670
  0.1671630802080015 -0.0004233431432812  0.3246871773470670
  0.1671630802080015  0.3332602629352797  0.3246871773470670
  0.1666666666666643  0.6666666666666643  0.3240052770476898
  0.5000000000000000  0.0000000000000000  0.3241106269872719
  0.4995766568567188  0.3332602629352797  0.3246871773470670
  0.4995766568567188  0.6671630802080014  0.3246871773470670
  0.9440383000300896  0.1119233999398214  0.3697540752413577
  0.9440383000300896  0.4440383000300894  0.3697540752413577
  0.9473410733628541  0.7763294633185728  0.3706960482261559
  0.2752062593513740  0.1123968703243165  0.3708059620567143
  0.2763294633185729  0.4473410733628542  0.3706960482261559
  0.2763294633185729  0.7763294633185728  0.3706960482261559
  0.6123968703243163  0.1123968703243165  0.3708059620567143
  0.6119233999398211  0.4440383000300894  0.3697540752413577
  0.6123968703243163  0.7752062593513738  0.3708059620567143
  0.4432084984093106  0.2783957507953446  0.0599255628300367
  0.4447413008048314  0.6105173983903373  0.0586327440118770
  0.4447413008048314  0.9447413008048313  0.0586327440118770
  0.7783957507953448  0.2783957507953446  0.0599255628300367
  0.7790924642650956  0.6104537678674559  0.0594914224529473
  0.7783957507953448  0.9432084984093109  0.0599255628300367
  0.1104537678674558  0.2790924642650956  0.0594914224529473
  0.1104537678674558  0.6104537678674559  0.0594914224529473
  0.1105173983903374  0.9447413008048313  0.0586327440118770
  0.5571453141522236  0.3857093716955530  0.1171910080690920
  0.5536581100466836  0.7231709449766583  0.1104086076598339
  0.5571453141522236  0.0571453141522235  0.1171910080690920
  0.8900006518676618  0.3900006518676613  0.1135013341426250
  0.8900006518676618  0.7199986962646703  0.1135013341426250
  0.8857093716955531  0.0571453141522235  0.1171910080690920
  0.2199986962646703  0.3900006518676613  0.1135013341426250
  0.2231709449766583  0.7231709449766583  0.1104086076598339
  0.2231709449766583  0.0536581100466834  0.1104086076598339
  0.6650871653503644  0.5021062484352133  0.1693861850800597
  0.6650871653503644  0.8328065862144222  0.1693861850800597
  0.6666666666666643  0.1666666666666643  0.1703917418921209
  0.0000000000000000  0.5000000000000000  0.1750319797790366
  0.0021062484352134  0.8328065862144222  0.1693861850800597
  0.0021062484352134  0.1650871653503644  0.1693861850800597
  0.3328065862144222  0.5021062484352133  0.1693861850800597
  0.3333333333333357  0.8333333333333357  0.1742648725852491
  0.3328065862144222  0.1650871653503644  0.1693861850800597
  0.7780705487069166  0.6109647256465452  0.2258475519595380
  0.7773280892159448  0.9453438215681100  0.2265230720144801
  0.7773280892159448  0.2773280892159450  0.2265230720144801
  0.1109647256465452  0.6109647256465452  0.2258475519595380
  0.1129339561110061  0.9435330219444970  0.2266339145240912
  0.1109647256465452  0.2780705487069168  0.2258475519595380
  0.4435330219444968  0.6129339561110063  0.2266339145240912
  0.4435330219444968  0.9435330219444970  0.2266339145240912
  0.4453438215681101  0.2773280892159450  0.2265230720144801
  0.8888692180525118  0.7222615638949692  0.2794053186909766
  0.8883177301452223  0.0558411349273889  0.2794893453067341
  0.8888692180525118  0.3888692180525118  0.2794053186909766
  0.2224842743658428  0.7224842743658431  0.2795009005645834
  0.2224842743658428  0.0550314512683144  0.2795009005645834
  0.2222615638949690  0.3888692180525118  0.2794053186909766
  0.5550314512683145  0.7224842743658431  0.2795009005645834
  0.5558411349273887  0.0558411349273889  0.2794893453067341
  0.5558411349273887  0.3883177301452224  0.2794893453067341
 -0.0004233431432812  0.8332602629352794  0.3246871773470670
 -0.0004233431432812  0.1671630802080015  0.3246871773470670
  0.0000000000000000  0.5000000000000000  0.3241106269872719
  0.3333333333333357  0.8333333333333357  0.3247244835669147
  0.3332602629352797  0.1671630802080015  0.3246871773470670
  0.3332602629352797  0.4995766568567188  0.3246871773470670
  0.6671630802080014  0.8332602629352794  0.3246871773470670
  0.6666666666666643  0.1666666666666643  0.3240052770476898
  0.6671630802080014  0.4995766568567188  0.3246871773470670
  0.1119233999398214  0.9440383000300896  0.3697540752413577
  0.1123968703243165  0.2752062593513740  0.3708059620567143
  0.1123968703243165  0.6123968703243163  0.3708059620567143
  0.4440383000300894  0.9440383000300896  0.3697540752413577
  0.4473410733628542  0.2763294633185729  0.3706960482261560
  0.4440383000300894  0.6119233999398211  0.3697540752413577
  0.7763294633185728  0.9473410733628541  0.3706960482261559
  0.7763294633185728  0.2763294633185729  0.3706960482261559
  0.7752062593513738  0.6123968703243163  0.3708059620567143
  0.0000000000000000  0.0000000000000000  0.4194920850826632
  0.0000000000000000  0.0000000000000000  0.4501138755079573
  0.0000000000000000  0.0000000000000000  0.5084663931385873
  0.0000000000000000  0.0000000000000000  0.5389101677036545
  0.0020946008192316  0.1255629860925482  0.4217125027875083
 -0.0006423815800393  0.1244469732996356  0.4527379358722373
  0.0002538643526188  0.1253494242754906  0.5088660536141713
 -0.0005184927018784  0.1247354234726155  0.5392203588821258
  0.0032063584102874  0.2483968207948563  0.4219649297048329
 -0.0014643754546785  0.2507321877273392  0.4539753612215044
  0.0007008312120806  0.2496495843939597  0.5094714851320463
 -0.0011326775424473  0.2505663387712236  0.5401621899188365
  0.0020946008192315  0.3723424130882202  0.4217125027875083
 -0.0006423815800393  0.3761954082804036  0.4527379358722373
  0.0002538643526188  0.3743967113718906  0.5088660536141713
 -0.0005184927018784  0.3757830692292628  0.5392203588821258
  0.0000000000000000  0.5000000000000000  0.4194920850826632
  0.0000000000000000  0.5000000000000000  0.4501138755079573
  0.0000000000000000  0.5000000000000000  0.5084663931385873
  0.0000000000000000  0.5000000000000000  0.5389101677036545
  0.0020946008192315  0.6255629860925481  0.4217125027875083
 -0.0006423815800393  0.6244469732996356  0.4527379358722373
  0.0002538643526188  0.6253494242754903  0.5088660536141713
 -0.0005184927018784  0.6247354234726155  0.5392203588821258
  0.0032063584102874  0.7483968207948564  0.4219649297048329
 -0.0014643754546785  0.7507321877273393  0.4539753612215044
  0.0007008312120806  0.7496495843939597  0.5094714851320463
 -0.0011326775424473  0.7505663387712237  0.5401621899188365
  0.0020946008192316  0.8723424130882202  0.4217125027875083
 -0.0006423815800393  0.8761954082804038  0.4527379358722373
  0.0002538643526188  0.8743967113718906  0.5088660536141713
 -0.0005184927018784  0.8757830692292629  0.5392203588821258
  0.1255629860925482  0.0020946008192316  0.4217125027875083
  0.1244469732996356 -0.0006423815800393  0.4527379358722373
  0.1253494242754906  0.0002538643526188  0.5088660536141713
  0.1247354234726155 -0.0005184927018784  0.5392203588821258
  0.1254200711930216  0.1254200711930216  0.4235719371512898
  0.1245496439711583  0.1245496439711583  0.4539267031756958
  0.1253088375007813  0.1253088375007813  0.5103161574543369
  0.1245967722717731  0.1245967722717731  0.5406234726978049
  0.1254200711930216  0.2491598576139570  0.4235719371512898
  0.1245496439711583  0.2509007120576834  0.4539267031756958
  0.1253088375007813  0.2493823249984374  0.5103161574543369
  0.1245967722717731  0.2508064554564538  0.5406234726978049
  0.1255629860925482  0.3723424130882202  0.4217125027875083
  0.1244469732996356  0.3761954082804036  0.4527379358722373
  0.1253494242754906  0.3743967113718906  0.5088660536141713
  0.1247354234726155  0.3757830692292628  0.5392203588821258
  0.1255629860925482  0.5020946008192316  0.4217125027875083
  0.1244469732996356  0.4993576184199608  0.4527379358722373
  0.1253494242754906  0.5002538643526189  0.5088660536141713
  0.1247354234726155  0.4994815072981217  0.5392203588821258
  0.1254200711930216  0.6254200711930215  0.4235719371512898
  0.1245496439711583  0.6245496439711582  0.4539267031756958
  0.1253088375007813  0.6253088375007816  0.5103161574543369
  0.1245967722717731  0.6245967722717731  0.5406234726978049
  0.1254200711930216  0.7491598576139569  0.4235719371512898
  0.1245496439711583  0.7509007120576836  0.4539267031756958
  0.1253088375007813  0.7493823249984374  0.5103161574543369
  0.1245967722717731  0.7508064554564540  0.5406234726978049
  0.1255629860925482  0.8723424130882202  0.4217125027875083
  0.1244469732996356  0.8761954082804038  0.4527379358722373
  0.1253494242754906  0.8743967113718906  0.5088660536141713
  0.1247354234726155  0.8757830692292629  0.5392203588821258
  0.2483968207948563  0.0032063584102874  0.4219649297048329
  0.2507321877273392 -0.0014643754546785  0.4539753612215044
  0.2496495843939597  0.0007008312120806  0.5094714851320463
  0.2505663387712236 -0.0011326775424473  0.5401621899188365
  0.2491598576139570  0.1254200711930216  0.4235719371512898
  0.2509007120576834  0.1245496439711583  0.4539267031756958
  0.2493823249984374  0.1253088375007813  0.5103161574543369
  0.2508064554564538  0.1245967722717731  0.5406234726978049
  0.2483968207948563  0.2483968207948563  0.4219649297048329
  0.2507321877273392  0.2507321877273392  0.4539753612215044
  0.2496495843939597  0.2496495843939597  0.5094714851320463
  0.2505663387712236  0.2505663387712236  0.5401621899188365
  0.2497737636944612  0.3751131181527693  0.4214117102022318
  0.2506892037078696  0.3746553981460653  0.4517601095531764
  0.2499343940020012  0.3750328029989994  0.5083872585607194
  0.2502140092011965  0.3748929953994018  0.5391183297464198
  0.2483968207948563  0.5032063584102877  0.4219649297048329
  0.2507321877273392  0.4985356245453214  0.4539753612215044
  0.2496495843939597  0.5007008312120806  0.5094714851320463
  0.2505663387712236  0.4988673224575527  0.5401621899188365
  0.2491598576139570  0.6254200711930215  0.4235719371512898
  0.2509007120576834  0.6245496439711582  0.4539267031756958
  0.2493823249984374  0.6253088375007816  0.5103161574543369
  0.2508064554564538  0.6245967722717731  0.5406234726978049
  0.2483968207948563  0.7483968207948564  0.4219649297048329
  0.2507321877273392  0.7507321877273393  0.4539753612215044
  0.2496495843939597  0.7496495843939597  0.5094714851320463
  0.2505663387712236  0.7505663387712237  0.5401621899188365
  0.2497737636944612  0.8751131181527694  0.4214117102022318
  0.2506892037078696  0.8746553981460654  0.4517601095531764
  0.2499343940020012  0.8750328029989994  0.5083872585607194
  0.2502140092011965  0.8748929953994017  0.5391183297464198
  0.3723424130882202  0.0020946008192315  0.4217125027875083
  0.3761954082804036 -0.0006423815800393  0.4527379358722373
  0.3743967113718906  0.0002538643526188  0.5088660536141713
  0.3757830692292628 -0.0005184927018784  0.5392203588821258
  0.3723424130882202  0.1255629860925482  0.4217125027875083
  0.3761954082804036  0.1244469732996356  0.4527379358722373
  0.3743967113718906  0.1253494242754906  0.5088660536141713
  0.3757830692292628  0.1247354234726155  0.5392203588821258
  0.3751131181527693  0.2497737636944612  0.4214117102022318
  0.3746553981460653  0.2506892037078696  0.4517601095531764
  0.3750328029989994  0.2499343940020012  0.5083872585607194
  0.3748929953994018  0.2502140092011965  0.5391183297464198
  0.3751131181527693  0.3751131181527693  0.4214117102022318
  0.3746553981460653  0.3746553981460653  0.4517601095531764
  0.3750328029989994  0.3750328029989994  0.5083872585607194
  0.3748929953994018  0.3748929953994018  0.5391183297464198
  0.3723424130882202  0.5020946008192316  0.4217125027875083
  0.3761954082804036  0.4993576184199608  0.4527379358722373
  0.3743967113718906  0.5002538643526189  0.5088660536141713
  0.3757830692292628  0.4994815072981217  0.5392203588821258
  0.3723424130882202  0.6255629860925481  0.4217125027875083
  0.3761954082804036  0.6244469732996356  0.4527379358722373
  0.3743967113718906  0.6253494242754903  0.5088660536141713
  0.3757830692292628  0.6247354234726155  0.5392203588821258
  0.3751131181527693  0.7497737636944615  0.4214117102022318
  0.3746553981460653  0.7506892037078694  0.4517601095531764
  0.3750328029989994  0.7499343940020011  0.5083872585607194
  0.3748929953994018  0.7502140092011964  0.5391183297464197
  0.3751131181527693  0.8751131181527694  0.4214117102022318
  0.3746553981460653  0.8746553981460654  0.4517601095531764
  0.3750328029989994  0.8750328029989994  0.5083872585607194
  0.3748929953994018  0.8748929953994017  0.5391183297464198
  0.5000000000000000  0.0000000000000000  0.4194920850826632
  0.5000000000000000  0.0000000000000000  0.4501138755079573
  0.5000000000000000  0.0000000000000000  0.5084663931385873
  0.5000000000000000  0.0000000000000000  0.5389101677036545
  0.5020946008192316  0.1255629860925482  0.4217125027875083
  0.4993576184199608  0.1244469732996356  0.4527379358722373
  0.5002538643526189  0.1253494242754906  0.5088660536141713
  0.4994815072981217  0.1247354234726155  0.5392203588821258
  0.5032063584102877  0.2483968207948563  0.4219649297048329
  0.4985356245453214  0.2507321877273392  0.4539753612215044
  0.5007008312120806  0.2496495843939597  0.5094714851320463
  0.4988673224575527  0.2505663387712236  0.5401621899188365
  0.5020946008192316  0.3723424130882202  0.4217125027875083
  0.4993576184199608  0.3761954082804036  0.4527379358722373
  0.5002538643526189  0.3743967113718906  0.5088660536141713
  0.4994815072981217  0.3757830692292628  0.5392203588821258
  0.5000000000000000  0.5000000000000000  0.4194920850826632
  0.5000000000000000  0.5000000000000000  0.4501138755079573
  0.5000000000000000  0.5000000000000000  0.5084663931385873
  0.5000000000000000  0.5000000000000000  0.5389101677036545
  0.5020946008192316  0.6255629860925481  0.4217125027875083
  0.4993576184199608  0.6244469732996356  0.4527379358722373
  0.5002538643526189  0.6253494242754903  0.5088660536141713
  0.4994815072981217  0.6247354234726155  0.5392203588821258
  0.5032063584102877  0.7483968207948564  0.4219649297048329
  0.4985356245453214  0.7507321877273393  0.4539753612215044
  0.5007008312120806  0.7496495843939597  0.5094714851320463
  0.4988673224575527  0.7505663387712237  0.5401621899188365
  0.5020946008192316  0.8723424130882202  0.4217125027875083
  0.4993576184199608  0.8761954082804038  0.4527379358722373
  0.5002538643526189  0.8743967113718906  0.5088660536141713
  0.4994815072981217  0.8757830692292629  0.5392203588821258
  0.6255629860925481  0.0020946008192316  0.4217125027875083
  0.6244469732996356 -0.0006423815800393  0.4527379358722373
  0.6253494242754903  0.0002538643526188  0.5088660536141713
  0.6247354234726155 -0.0005184927018784  0.5392203588821258
  0.6254200711930215  0.1254200711930216  0.4235719371512898
  0.6245496439711582  0.1245496439711583  0.4539267031756958
  0.6253088375007816  0.1253088375007813  0.5103161574543369
  0.6245967722717731  0.1245967722717731  0.5406234726978049
  0.6254200711930215  0.2491598576139570  0.4235719371512898
  0.6245496439711582  0.2509007120576835  0.4539267031756958
  0.6253088375007816  0.2493823249984374  0.5103161574543369
  0.6245967722717731  0.2508064554564538  0.5406234726978049
  0.6255629860925481  0.3723424130882202  0.4217125027875083
  0.6244469732996356  0.3761954082804036  0.4527379358722373
  0.6253494242754903  0.3743967113718906  0.5088660536141713
  0.6247354234726155  0.3757830692292628  0.5392203588821258
  0.6255629860925481  0.5020946008192316  0.4217125027875083
  0.6244469732996356  0.4993576184199608  0.4527379358722373
  0.6253494242754903  0.5002538643526189  0.5088660536141713
  0.6247354234726155  0.4994815072981217  0.5392203588821258
  0.6254200711930215  0.6254200711930215  0.4235719371512898
  0.6245496439711582  0.6245496439711582  0.4539267031756958
  0.6253088375007816  0.6253088375007816  0.5103161574543369
  0.6245967722717731  0.6245967722717731  0.5406234726978049
  0.6254200711930215  0.7491598576139569  0.4235719371512898
  0.6245496439711582  0.7509007120576836  0.4539267031756958
  0.6253088375007816  0.7493823249984374  0.5103161574543369
  0.6245967722717731  0.7508064554564540  0.5406234726978049
  0.6255629860925481  0.8723424130882202  0.4217125027875083
  0.6244469732996356  0.8761954082804038  0.4527379358722373
  0.6253494242754903  0.8743967113718906  0.5088660536141713
  0.6247354234726155  0.8757830692292629  0.5392203588821258
  0.7483968207948564  0.0032063584102874  0.4219649297048329
  0.7507321877273393 -0.0014643754546785  0.4539753612215044
  0.7496495843939597  0.0007008312120806  0.5094714851320463
  0.7505663387712237 -0.0011326775424473  0.5401621899188365
  0.7491598576139569  0.1254200711930216  0.4235719371512898
  0.7509007120576836  0.1245496439711583  0.4539267031756958
  0.7493823249984374  0.1253088375007813  0.5103161574543369
  0.7508064554564540  0.1245967722717731  0.5406234726978049
  0.7483968207948564  0.2483968207948563  0.4219649297048329
  0.7507321877273393  0.2507321877273392  0.4539753612215044
  0.7496495843939597  0.2496495843939597  0.5094714851320463
  0.7505663387712237  0.2505663387712236  0.5401621899188365
  0.7497737636944615  0.3751131181527693  0.4214117102022318
  0.7506892037078694  0.3746553981460653  0.4517601095531764
  0.7499343940020011  0.3750328029989994  0.5083872585607194
  0.7502140092011964  0.3748929953994018  0.5391183297464198
  0.7483968207948564  0.5032063584102877  0.4219649297048329
  0.7507321877273393  0.4985356245453214  0.4539753612215044
  0.7496495843939597  0.5007008312120806  0.5094714851320463
  0.7505663387712237  0.4988673224575527  0.5401621899188366
  0.7491598576139569  0.6254200711930215  0.4235719371512898
  0.7509007120576836  0.6245496439711582  0.4539267031756958
  0.7493823249984374  0.6253088375007816  0.5103161574543369
  0.7508064554564540  0.6245967722717731  0.5406234726978049
  0.7483968207948564  0.7483968207948564  0.4219649297048329
  0.7507321877273393  0.7507321877273393  0.4539753612215044
  0.7496495843939597  0.7496495843939597  0.5094714851320463
  0.7505663387712237  0.7505663387712237  0.5401621899188365
  0.7497737636944615  0.8751131181527694  0.4214117102022318
  0.7506892037078694  0.8746553981460654  0.4517601095531764
  0.7499343940020011  0.8750328029989994  0.5083872585607194
  0.7502140092011964  0.8748929953994017  0.5391183297464198
  0.8723424130882202  0.0020946008192315  0.4217125027875083
  0.8761954082804038 -0.0006423815800393  0.4527379358722373
  0.8743967113718906  0.0002538643526188  0.5088660536141713
  0.8757830692292629 -0.0005184927018784  0.5392203588821258
  0.8723424130882202  0.1255629860925482  0.4217125027875083
  0.8761954082804038  0.1244469732996356  0.4527379358722373
  0.8743967113718906  0.1253494242754906  0.5088660536141713
  0.8757830692292629  0.1247354234726155  0.5392203588821258
  0.8751131181527694  0.2497737636944612  0.4214117102022318
  0.8746553981460654  0.2506892037078696  0.4517601095531764