Ni  O                                   
    1.000000000000000     
    15.1462217587961998    0.0000000000000000    0.0000000000000000
     7.5731108793980804   13.1170128144700993    0.0000000000000000
     0.0000000000000000    0.0000000000000000   36.3999999999999986
   Ni   O 
   252    64
Direct
  0.4445155548036203  0.4445155548036203  0.0845849192576861
  0.4444460873399358  0.7777769563300321  0.0846365760361493
  0.4445155548036203  0.1109688903927595  0.0845849192576861
  0.7777769563300321  0.4444460873399358  0.0846365760361493
  0.7777769563300321  0.7777769563300321  0.0846365760361493
  0.7777414066009060  0.1111292966995506  0.0845172724988270
  0.1109688903927595  0.4445155548036203  0.0845849192576861
  0.1111292966995506  0.7777414066009060  0.0845172724988270
  0.1111292966995506  0.1111292966995506  0.0845172724988270
  0.5555223385549573  0.5555223385549573  0.1392732054941068
  0.5555223385549573  0.8889553228900862  0.1392732054941068
  0.5556374834355954  0.2221812582822022  0.1391827535573350
  0.8889553228900862  0.5555223385549573  0.1392732054941068
  0.8888605988297881  0.8888605988297881  0.1390514117979981
  0.8888605988297881  0.2222788023404162  0.1390514117979981
  0.2221812582822022  0.5556374834355954  0.1391827535573350
  0.2222788023404162  0.8888605988297881  0.1390514117979981
  0.2221812582822022  0.2221812582822022  0.1391827535573350
  0.6666666666666643  0.6666666666666643  0.1921201911837523
  0.6667710794505960  0.0000308141458186  0.1919945462326113
  0.6667710794505960  0.3331981064035852  0.1919945462326113
  0.0000308141458186  0.6667710794505960  0.1919945462326113
 -0.0000000000000000 -0.0000000000000000  0.1920701052962183
  0.0000308141458186  0.3331981064035852  0.1919945462326113
  0.3331981064035853  0.6667710794505960  0.1919945462326113
  0.3331981064035853  0.0000308141458186  0.1919945462326113
  0.3333333333333357  0.3333333333333357  0.1919379864613236
  0.7773718908020565  0.7773718908020565  0.2481627107415492
  0.7774985587114162  0.1112507206442953  0.2482662676347800
  0.7773718908020565  0.4452562183958865  0.2481627107415492
  0.1112507206442953  0.7774985587114162  0.2482662676347800
  0.1112507206442953  0.1112507206442953  0.2482662676347800
  0.1109350758907912  0.4445324620546044  0.2477004224440059
  0.4452562183958865  0.7773718908020565  0.2481627107415492
  0.4445324620546044  0.1109350758907912  0.2477004224440059
  0.4445324620546044  0.4445324620546044  0.2477004224440059
  0.8892650557795817  0.8892650557795817  0.3003328060844469
  0.8892650557795817  0.2214698884408293  0.3003328060844469
  0.8892886867666774  0.5553556566166613  0.3013189522523927
  0.2214698884408293  0.8892650557795817  0.3003328060844469
  0.2215812038006940  0.2215812038006940  0.3020583880722740
  0.2215812038006940  0.5568375923986123  0.3020583880722740
  0.5553556566166613  0.8892886867666774  0.3013189522523927
  0.5568375923986123  0.2215812038006940  0.3020583880722740
  0.5553556566166613  0.5553556566166613  0.3013189522523927
 -0.0000000000000000 -0.0000000000000000  0.3550056158023164
  0.0035704475109526  0.3317898514294461  0.3549314806909056
  0.0035704475109526  0.6646397010596015  0.3549314806909056
  0.3317898514294461  0.0035704475109526  0.3549314806909056
  0.3333333333333357  0.3333333333333357  0.3539734395351697
  0.3317898514294461  0.6646397010596015  0.3549314806909056
  0.6646397010596015  0.0035704475109527  0.3549314806909056
  0.6646397010596015  0.3317898514294461  0.3549314806909056
  0.6666666666666643  0.6666666666666643  0.3563356504987589
  0.1157937972429994  0.1157937972429993  0.4115060887418806
  0.1254433612970706  0.4372783193514649  0.4086065448379264
  0.1157937972429993  0.7684124055140082  0.4115060887418806
  0.4372783193514649  0.1254433612970706  0.4086065448379264
  0.4372783193514649  0.4372783193514649  0.4086065448379264
  0.4467077511224610  0.7766461244387696  0.4091813172190320
  0.7684124055140082  0.1157937972429994  0.4115060887418806
  0.7766461244387696  0.4467077511224610  0.4091813172190320
  0.7766461244387696  0.7766461244387696  0.4091813172190320
  0.2777769563300319  0.2777769563300319  0.0846365760361493
  0.2777414066009058  0.6111292966995506  0.0845172724988270
  0.2777769563300319  0.9444460873399363  0.0846365760361494
  0.6111292966995506  0.2777414066009058  0.0845172724988270
  0.6111292966995506  0.6111292966995506  0.0845172724988270
  0.6109688903927595  0.9445155548036200  0.0845849192576861
  0.9444460873399363  0.2777769563300319  0.0846365760361493
  0.9445155548036200  0.6109688903927595  0.0845849192576861
  0.9445155548036200  0.9445155548036200  0.0845849192576861
  0.3888605988297884  0.3888605988297884  0.1390514117979981
  0.3888605988297884  0.7222788023404161  0.1390514117979981
  0.3889553228900862  0.0555223385549570  0.1392732054941068
  0.7222788023404161  0.3888605988297884  0.1390514117979981
  0.7221812582822024  0.7221812582822024  0.1391827535573350
  0.7221812582822024  0.0556374834355954  0.1391827535573350
  0.0555223385549570  0.3889553228900862  0.1392732054941068
  0.0556374834355954  0.7221812582822024  0.1391827535573350
  0.0555223385549570  0.0555223385549570  0.1392732054941068
  0.5000000000000000  0.5000000000000000  0.1920701052962183
  0.5000308141458186  0.8331981064035853  0.1919945462326113
  0.5000308141458186  0.1667710794505962  0.1919945462326113
  0.8331981064035854  0.5000308141458186  0.1919945462326113
  0.8333333333333357  0.8333333333333357  0.1919379864613236
  0.8331981064035854  0.1667710794505962  0.1919945462326113
  0.1667710794505962  0.5000308141458186  0.1919945462326113
  0.1667710794505962  0.8331981064035853  0.1919945462326113
  0.1666666666666643  0.1666666666666643  0.1921201911837523
  0.6112507206442953  0.6112507206442953  0.2482662676347800
  0.6109350758907911  0.9445324620546044  0.2477004224440059
  0.6112507206442953  0.2774985587114165  0.2482662676347800
  0.9445324620546044  0.6109350758907911  0.2477004224440059
  0.9445324620546044  0.9445324620546044  0.2477004224440059
  0.9452562183958865  0.2773718908020568  0.2481627107415492
  0.2774985587114165  0.6112507206442953  0.2482662676347800
  0.2773718908020568  0.9452562183958865  0.2481627107415492
  0.2773718908020568  0.2773718908020568  0.2481627107415492
  0.7215812038006942  0.7215812038006942  0.3020583880722740
  0.7215812038006942  0.0568375923986120  0.3020583880722740
  0.7214698884408289  0.3892650557795820  0.3003328060844469
  0.0568375923986120  0.7215812038006942  0.3020583880722740
  0.0553556566166612  0.0553556566166612  0.3013189522523927
  0.0553556566166612  0.3892886867666775  0.3013189522523927
  0.3892650557795820  0.7214698884408289  0.3003328060844469
  0.3892886867666775  0.0553556566166612  0.3013189522523927
  0.3892650557795820  0.3892650557795820  0.3003328060844469
  0.8333333333333357  0.8333333333333357  0.3539734395351697
  0.8317898514294461  0.1646397010596014  0.3549314806909056
  0.8317898514294461  0.5035704475109528  0.3549314806909056
  0.1646397010596014  0.8317898514294461  0.3549314806909056
  0.1666666666666643  0.1666666666666643  0.3563356504987589
  0.1646397010596014  0.5035704475109527  0.3549314806909056
  0.5035704475109528  0.8317898514294461  0.3549314806909056
  0.5035704475109528  0.1646397010596014  0.3549314806909056
  0.5000000000000000  0.5000000000000000  0.3550056158023164
  0.9372783193514646  0.9372783193514646  0.4086065448379264
  0.9467077511224612  0.2766461244387694  0.4091813172190320
  0.9372783193514646  0.6254433612970702  0.4086065448379264
  0.2766461244387694  0.9467077511224612  0.4091813172190320
  0.2766461244387695  0.2766461244387694  0.4091813172190320
  0.2684124055140084  0.6157937972429992  0.4115060887418806
  0.6254433612970702  0.9372783193514646  0.4086065448379264
  0.6157937972429992  0.2684124055140084  0.4115060887418806
  0.6157937972429992  0.6157937972429992  0.4115060887418806
  0.2777769563300319  0.4444460873399358  0.0846365760361493
  0.2777769563300319  0.7777769563300321  0.0846365760361493
  0.2777414066009058  0.1111292966995506  0.0845172724988270
  0.6109688903927595  0.4445155548036203  0.0845849192576861
  0.6111292966995506  0.7777414066009060  0.0845172724988270
  0.6111292966995506  0.1111292966995506  0.0845172724988270
  0.9445155548036200  0.4445155548036203  0.0845849192576861
  0.9444460873399363  0.7777769563300321  0.0846365760361493
  0.9445155548036200  0.1109688903927595  0.0845849192576861
  0.3889553228900862  0.5555223385549573  0.1392732054941068
  0.3888605988297884  0.8888605988297881  0.1390514117979981
  0.3888605988297884  0.2222788023404162  0.1390514117979981
  0.7221812582822024  0.5556374834355954  0.1391827535573350
  0.7222788023404161  0.8888605988297881  0.1390514117979981
  0.7221812582822024  0.2221812582822022  0.1391827535573350
  0.0555223385549570  0.5555223385549573  0.1392732054941068
  0.0555223385549570  0.8889553228900862  0.1392732054941068
  0.0556374834355954  0.2221812582822022  0.1391827535573350
  0.5000308141458186  0.6667710794505960  0.1919945462326113
  0.5000000000000000 -0.0000000000000000  0.1920701052962183
  0.5000308141458186  0.3331981064035852  0.1919945462326113
  0.8331981064035854  0.6667710794505960  0.1919945462326113
  0.8331981064035854  0.0000308141458186  0.1919945462326113
  0.8333333333333357  0.3333333333333357  0.1919379864613236
  0.1666666666666643  0.6666666666666643  0.1921201911837523
  0.1667710794505962  0.0000308141458186  0.1919945462326113
  0.1667710794505962  0.3331981064035852  0.1919945462326113
  0.6112507206442953  0.7774985587114162  0.2482662676347800
  0.6112507206442953  0.1112507206442953  0.2482662676347800
  0.6109350758907911  0.4445324620546044  0.2477004224440059
  0.9452562183958865  0.7773718908020565  0.2481627107415492
  0.9445324620546044  0.1109350758907912  0.2477004224440059
  0.9445324620546044  0.4445324620546044  0.2477004224440059
  0.2773718908020568  0.7773718908020565  0.2481627107415492
  0.2774985587114165  0.1112507206442953  0.2482662676347800
  0.2773718908020568  0.4452562183958865  0.2481627107415492
  0.7214698884408289  0.8892650557795817  0.3003328060844469
  0.7215812038006942  0.2215812038006940  0.3020583880722740
  0.7215812038006942  0.5568375923986123  0.3020583880722740
  0.0553556566166612  0.8892886867666774  0.3013189522523927
  0.0568375923986120  0.2215812038006940  0.3020583880722740
  0.0553556566166612  0.5553556566166613  0.3013189522523927
  0.3892650557795820  0.8892650557795817  0.3003328060844469
  0.3892650557795820  0.2214698884408293  0.3003328060844469
  0.3892886867666775  0.5553556566166613  0.3013189522523927
  0.8317898514294461  0.0035704475109527  0.3549314806909056
  0.8333333333333357  0.3333333333333357  0.3539734395351697
  0.8317898514294461  0.6646397010596015  0.3549314806909056
  0.1646397010596014  0.0035704475109527  0.3549314806909056
  0.1646397010596014  0.3317898514294461  0.3549314806909056
  0.1666666666666643  0.6666666666666643  0.3563356504987589
  0.5000000000000000 -0.0000000000000000  0.3550056158023164
  0.5035704475109528  0.3317898514294461  0.3549314806909056
  0.5035704475109528  0.6646397010596015  0.3549314806909056
  0.9372783193514646  0.1254433612970706  0.4086065448379264
  0.9372783193514646  0.4372783193514649  0.4086065448379264
  0.9467077511224612  0.7766461244387696  0.4091813172190320
  0.2684124055140084  0.1157937972429994  0.4115060887418806
  0.2766461244387694  0.4467077511224611  0.4091813172190320
  0.2766461244387695  0.7766461244387696  0.4091813172190320
  0.6157937972429992  0.1157937972429993  0.4115060887418806
  0.6254433612970702  0.4372783193514649  0.4086065448379264
  0.6157937972429992  0.7684124055140082  0.4115060887418806
  0.4444460873399358  0.2777769563300319  0.0846365760361493
  0.4445155548036203  0.6109688903927595  0.0845849192576861
  0.4445155548036203  0.9445155548036200  0.0845849192576861
  0.7777769563300321  0.2777769563300319  0.0846365760361493
  0.7777414066009060  0.6111292966995506  0.0845172724988270
  0.7777769563300321  0.9444460873399363  0.0846365760361494
  0.1111292966995506  0.2777414066009058  0.0845172724988270
  0.1111292966995506  0.6111292966995506  0.0845172724988270
  0.1109688903927595  0.9445155548036200  0.0845849192576861
  0.5555223385549573  0.3889553228900862  0.1392732054941068
  0.5556374834355954  0.7221812582822024  0.1391827535573350
  0.5555223385549573  0.0555223385549570  0.1392732054941068
  0.8888605988297881  0.3888605988297884  0.1390514117979981
  0.8888605988297881  0.7222788023404161  0.1390514117979981
  0.8889553228900862  0.0555223385549570  0.1392732054941068
  0.2222788023404162  0.3888605988297884  0.1390514117979981
  0.2221812582822022  0.7221812582822024  0.1391827535573350
  0.2221812582822022  0.0556374834355954  0.1391827535573350
  0.6667710794505960  0.5000308141458186  0.1919945462326113
  0.6667710794505960  0.8331981064035853  0.1919945462326113
  0.6666666666666643  0.1666666666666643  0.1921201911837523
 -0.0000000000000000  0.5000000000000000  0.1920701052962183
  0.0000308141458186  0.8331981064035853  0.1919945462326113
  0.0000308141458186  0.1667710794505962  0.1919945462326113
  0.3331981064035853  0.5000308141458186  0.1919945462326113
  0.3333333333333357  0.8333333333333357  0.1919379864613236
  0.3331981064035853  0.1667710794505962  0.1919945462326113
  0.7774985587114162  0.6112507206442953  0.2482662676347800
  0.7773718908020565  0.9452562183958865  0.2481627107415492
  0.7773718908020565  0.2773718908020568  0.2481627107415492
  0.1112507206442953  0.6112507206442953  0.2482662676347800
  0.1109350758907912  0.9445324620546044  0.2477004224440059
  0.1112507206442953  0.2774985587114165  0.2482662676347800
  0.4445324620546044  0.6109350758907911  0.2477004224440059
  0.4445324620546044  0.9445324620546044  0.2477004224440059
  0.4452562183958865  0.2773718908020568  0.2481627107415492
  0.8892650557795817  0.7214698884408289  0.3003328060844469
  0.8892886867666774  0.0553556566166612  0.3013189522523927
  0.8892650557795817  0.3892650557795820  0.3003328060844469
  0.2215812038006940  0.7215812038006942  0.3020583880722740
  0.2215812038006940  0.0568375923986120  0.3020583880722740
  0.2214698884408293  0.3892650557795820  0.3003328060844469
  0.5568375923986123  0.7215812038006942  0.3020583880722740
  0.5553556566166613  0.0553556566166612  0.3013189522523927
  0.5553556566166613  0.3892886867666775  0.3013189522523927
  0.0035704475109526  0.8317898514294461  0.3549314806909056
  0.0035704475109526  0.1646397010596014  0.3549314806909056
 -0.0000000000000000  0.5000000000000000  0.3550056158023164
  0.3333333333333357  0.8333333333333357  0.3539734395351697
  0.3317898514294461  0.1646397010596014  0.3549314806909056
  0.3317898514294461  0.5035704475109528  0.3549314806909056
  0.6646397010596015  0.8317898514294461  0.3549314806909056
  0.6666666666666643  0.1666666666666643  0.3563356504987589
  0.6646397010596015  0.5035704475109527  0.3549314806909056
  0.1254433612970706  0.9372783193514646  0.4086065448379264
  0.1157937972429993  0.2684124055140084  0.4115060887418806
  0.1157937972429994  0.6157937972429992  0.4115060887418806
  0.4372783193514649  0.9372783193514646  0.4086065448379264
  0.4467077511224610  0.2766461244387694  0.4091813172190320
  0.4372783193514649  0.6254433612970702  0.4086065448379264
  0.7766461244387696  0.9467077511224612  0.4091813172190320
  0.7766461244387696  0.2766461244387694  0.4091813172190320
  0.7684124055140082  0.6157937972429992  0.4115060887418806
 -0.0000000000000000 -0.0000000000000000  0.4283168069016458
  0.0222996099507957  0.1052699759995782  0.4810469918760290
 -0.0335608706169139  0.2667804353084569  0.4699796964817852
  0.0222996099507957  0.3724304140496261  0.4810469918760290
 -0.0000000000000000  0.5000000000000000  0.4283168069016458
  0.0222996099507957  0.6052699759995785  0.4810469918760290
 -0.0335608706169139  0.7667804353084569  0.4699796964817852
  0.0222996099507957  0.8724304140496258  0.4810469918760290
  0.1052699759995782  0.0222996099507957  0.4810469918760290
  0.1352290620829052  0.1352290620829052  0.5257753136072969
  0.1352290620829052  0.2295418758341895  0.5257753136072969
  0.1052699759995782  0.3724304140496261  0.4810469918760290
  0.1052699759995782  0.5222996099507956  0.4810469918760290
  0.1352290620829052  0.6352290620829047  0.5257753136072969
  0.1352290620829052  0.7295418758341895  0.5257753136072969
  0.1052699759995782  0.8724304140496258  0.4810469918760290
  0.2667804353084569 -0.0335608706169139  0.4699796964817852
  0.2295418758341895  0.1352290620829052  0.5257753136072969
  0.2667804353084569  0.2667804353084569  0.4699796964817852
  0.2301193002639079  0.3849403498680461  0.4491528059254240
  0.2667804353084569  0.4664391293830859  0.4699796964817852
  0.2295418758341895  0.6352290620829047  0.5257753136072969
  0.2667804353084569  0.7667804353084569  0.4699796964817852
  0.2301193002639080  0.8849403498680458  0.4491528059254240
  0.3724304140496260  0.0222996099507957  0.4810469918760290
  0.3724304140496260  0.1052699759995782  0.4810469918760290
  0.3849403498680461  0.2301193002639079  0.4491528059254240
  0.3849403498680461  0.3849403498680461  0.4491528059254240
  0.3724304140496260  0.5222996099507956  0.4810469918760290
  0.3724304140496260  0.6052699759995785  0.4810469918760290
  0.3849403498680461  0.7301193002639078  0.4491528059254240
  0.3849403498680461  0.8849403498680458  0.4491528059254240
  0.5000000000000000 -0.0000000000000000  0.4283168069016458
  0.5222996099507956  0.1052699759995782  0.4810469918760290
  0.4664391293830859  0.2667804353084569  0.4699796964817852
  0.5222996099507956  0.3724304140496261  0.4810469918760290
  0.5000000000000000  0.5000000000000000  0.4283168069016458
  0.5222996099507956  0.6052699759995785  0.4810469918760290
  0.4664391293830859  0.7667804353084569  0.4699796964817852
  0.5222996099507955  0.8724304140496258  0.4810469918760290
  0.6052699759995785  0.0222996099507957  0.4810469918760290
  0.6352290620829049  0.1352290620829052  0.5257753136072969
  0.6352290620829047  0.2295418758341895  0.5257753136072969
  0.6052699759995784  0.3724304140496261  0.4810469918760290
  0.6052699759995783  0.5222996099507956  0.4810469918760290
  0.6352290620829049  0.6352290620829047  0.5257753136072969
  0.6352290620829047  0.7295418758341895  0.5257753136072969
  0.6052699759995785  0.8724304140496258  0.4810469918760290
  0.7667804353084569 -0.0335608706169139  0.4699796964817852
  0.7295418758341895  0.1352290620829052  0.5257753136072969
  0.7667804353084569  0.2667804353084569  0.4699796964817852
  0.7301193002639078  0.3849403498680461  0.4491528059254240
  0.7667804353084569  0.4664391293830859  0.4699796964817852
  0.7295418758341894  0.6352290620829047  0.5257753136072969
  0.7667804353084569  0.7667804353084569  0.4699796964817852
  0.7301193002639078  0.8849403498680458  0.4491528059254240
  0.8724304140496258  0.0222996099507957  0.4810469918760290
  0.8724304140496258  0.1052699759995782  0.4810469918760290
  0.8849403498680458  0.2301193002639080  0.4491528059254240
  0.8849403498680458  0.3849403498680461  0.4491528059254240
  0.8724304140496258  0.5222996099507955  0.4810469918760290
  0.8724304140496258  0.6052699759995784  0.4810469918760290
  0.8849403498680458  0.7301193002639078  0.4491528059254240
  0.8849403498680458  0.8849403498680458  0.4491528059254240
 
  0.00000000E+00  0.00000000E+00  0.00000000E+00
  0.00000000E+00  0.00000000E+00  0.00000000E+00
  0.00000000E+00  0.00000000E+00  0.00000000E+00
  0.00000000E+00  0.00000000E+00  0.00000000E+00
  0.00000000E+00  0.00000000E+00  0.00000000E+00
  0.00000000E+00  0.00000000E+00  0.00000000E+00
  0.00000000E+00  0.00000000E+00  0.00000000E+00
  0.00000000E+00  0.00000000E+00  0.00000000E+00
  0.00000000E+00  0.00000000E+00  0.00000000E+00
  0.00000000E+00  0.00000000E+00  0.00000000E+00
  0.00000000E+00  0.00000000E+00  0.00000000E+00
  0.00000000E+00  0.00000000E+00  0.00000000E+00
  0.00000000E+00  0.00000000E+00  0.00000000E+00
  0.00000000E+00  0.00000000E+00  0.00000000E+00
  0.00000000E+00  0.00000000E+00  0.00000000E+00
  0.00000000E+00  0.00000000E+00  0.00000000E+00
  0.00000000E+00  0.00000000E+00  0.00000000E+00
  0.00000000E+00  0.00000000E+00  0.00000000E+00
  0.00000000E+00  0.00000000E+00  0.00000000E+00
  0.00000000E+00  0.00000000E+00  0.00000000E+00
  0.00000000E+00  0.00000000E+00  0.00000000E+00
  0.00000000E+00  0.00000000E+00  0.00000000E+00
  0.00000000E+00  0.00000000E+00  0.00000000E+00
  0.00000000E+00  0.00000000E+00  0.00000000E+00
  0.00000000E+00  0.00000000E+00  0.00000000E+00
  0.00000000E+00  0.00000000E+00  0.00000000E+00
  0.00000000E+00  0.00000000E+00  0.00000000E+00
  0.00000000E+00  0.00000000E+00  0.00000000E+00
  0.00000000E+00  0.00000000E+00  0.00000000E+00
  0.00000000E+00  0.00000000E+00  0.00000000E+00
  0.00000000E+00  0.00000000E+00  0.00000000E+00
  0.00000000E+00  0.00000000E+00  0.00000000E+00
  0.00000000E+00  0.00000000E+00  0.00000000E+00
  0.00000000E+00  0.00000000E+00  0.00000000E+00
  0.00000000E+00  0.00000000E+00  0.00000000E+00
  0.00000000E+00  0.00000000E+00  0.00000000E+00
  0.00000000E+00  0.00000000E+00  0.00000000E+00
  0.00000000E+00  0.00000000E+00  0.00000000E+00
  0.00000000E+00  0.00000000E+00  0.00000000E+00
  0.00000000E+00  0.00000000E+00  0.00000000E+00
  0.00000000E+00  0.00000000E+00  0.00000000E+00
  0.00000000E+00  0.00000000E+00  0.00000000E+00
  0.00000000E+00  0.00000000E+00  0.00000000E+00
  0.00000000E+00  0.00000000E+00  0.00000000E+00
  0.00000000E+00  0.00000000E+00  0.00000000E+00
  0.00000000E+00  0.00000000E+00  0.00000000E+00
  0.00000000E+00  0.00000000E+00  0.00000000E+00
  0.00000000E+00  0.00000000E+00  0.00000000E+00
  0.00000000E+00  0.00000000E+00  0.00000000E+00
  0.00000000E+00  0.00000000E+00  0.00000000E+00
  0.00000000E+00  0.00000000E+00  0.00000000E+00
  0.00000000E+00  0.00000000E+00  0.00000000E+00
  0.00000000E+00  0.00000000E+00  0.00000000E+00
  0.00000000E+00  0.00000000E+00  0.00000000E+00
  0.00000000E+00  0.00000000E+00  0.00000000E+00
  0.00000000E+00  0.00000000E+00  0.00000000E+00
  0.00000000E+00  0.00000000E+00  0.00000000E+00
  0.00000000E+00  0.00000000E+00  0.00000000E+00
  0.00000000E+00  0.00000000E+00  0.00000000E+00
  0.00000000E+00  0.00000000E+00  0.00000000E+00
  0.00000000E+00  0.00000000E+00  0.00000000E+00
  0.00000000E+00  0.00000000E+00  0.00000000E+00
  0.00000000E+00  0.00000000E+00  0.00000000E+00
  0.00000000E+00  0.00000000E+00  0.00000000E+00
  0.00000000E+00  0.00000000E+00  0.00000000E+00
  0.00000000E+00  0.00000000E+00  0.00000000E+00
  0.00000000E+00  0.00000000E+00  0.00000000E+00
  0.00000000E+00  0.00000000E+00  0.00000000E+00
  0.00000000E+00  0.00000000E+00  0.00000000E+00
  0.00000000E+00  0.00000000E+00  0.00000000E+00
  0.00000000E+00  0.00000000E+00  0.00000000E+00
  0.00000000E+00  0.00000000E+00  0.00000000E+00
  0.00000000E+00  0.00000000E+00  0.00000000E+00
  0.00000000E+00  0.00000000E+00  0.00000000E+00
  0.00000000E+00  0.00000000E+00  0.00000000E+00
  0.00000000E+00  0.00000000E+00  0.00000000E+00
  0.00000000E+00  0.00000000E+00  0.00000000E+00
  0.00000000E+00  0.00000000E+00  0.00000000E+00
  0.00000000E+00  0.00000000E+00  0.00000000E+00
  0.00000000E+00  0.00000000E+00  0.00000000E+00
  0.00000000E+00  0.00000000E+00  0.00000000E+00
  0.00000000E+00  0.00000000E+00  0.00000000E+00
  0.00000000E+00  0.00000000E+00  0.00000000E+00
  0.00000000E+00  0.00000000E+00  0.00000000E+00
  0.00000000E+00  0.00000000E+00  0.00000000E+00
  0.00000000E+00  0.00000000E+00  0.00000000E+00
  0.00000000E+00  0.00000000E+00  0.00000000E+00
  0.00000000E+00  0.00000000E+00  0.00000000E+00
  0.00000000E+00  0.00000000E+00  0.00000000E+00
  0.00000000E+00  0.00000000E+00  0.00000000E+00
  0.00000000E+00  0.00000000E+00  0.00000000E+00
  0.00000000E+00  0.00000000E+00  0.00000000E+00
  0.00000000E+00  0.00000000E+00  0.00000000E+00
  0.00000000E+00  0.00000000E+00  0.00000000E+00
  0.00000000E+00  0.00000000E+00  0.00000000E+00
  0.00000000E+00  0.00000000E+00  0.00000000E+00
  0.00000000E+00  0.00000000E+00  0.00000000E+00
  0.00000000E+00  0.00000000E+00  0.00000000E+00
  0.00000000E+00  0.00000000E+00  0.00000000E+00
  0.00000000E+00  0.00000000E+00  0.00000000E+00
  0.00000000E+00  0.00000000E+00  0.00000000E+00
  0.00000000E+00  0.00000000E+00  0.00000000E+00
  0.00000000E+00  0.00000000E+00  0.00000000E+00
  0.00000000E+00  0.00000000E+00  0.00000000E+00
  0.00000000E+00  0.00000000E+00  0.00000000E+00
  0.00000000E+00  0.00000000E+00  0.00000000E+00
  0.00000000E+00  0.00000000E+00  0.00000000E+00
  0.00000000E+00  0.00000000E+00  0.00000000E+00
  0.00000000E+00  0.00000000E+00  0.00000000E+00
  0.00000000E+00  0.00000000E+00  0.00000000E+00
  0.00000000E+00  0.00000000E+00  0.00000000E+00
  0.00000000E+00  0.00000000E+00  0.00000000E+00
  0.00000000E+00  0.00000000E+00  0.00000000E+00
  0.00000000E+00  0.00000000E+00  0.00000000E+00
  0.00000000E+00  0.00000000E+00  0.00000000E+00
  0.00000000E+00  0.00000000E+00  0.00000000E+00
  0.00000000E+00  0.00000000E+00  0.00000000E+00
  0.00000000E+00  0.00000000E+00  0.00000000E+00
  0.00000000E+00  0.00000000E+00  0.00000000E+00
  0.00000000E+00  0.00000000E+00  0.00000000E+00
  0.00000000E+00  0.00000000E+00  0.00000000E+00
  0.00000000E+00  0.00000000E+00  0.00000000E+00
  0.00000000E+00  0.00000000E+00  0.00000000E+00
  0.00000000E+00  0.00000000E+00  0.00000000E+00
  0.00000000E+00  0.00000000E+00  0.00000000E+00
  0.00000000E+00  0.00000000E+00  0.00000000E+00
  0.00000000E+00  0.00000000E+00  0.00000000E+00
  0.00000000E+00  0.00000000E+00  0.00000000E+00
  0.00000000E+00  0.00000000E+00  0.00000000E+00
  0.00000000E+00  0.00000000E+00  0.00000000E+00
  0.00000000E+00  0.00000000E+00  0.00000000E+00
  0.00000000E+00  0.00000000E+00  0.00000000E+00
  0.00000000E+00  0.00000000E+00  0.00000000E+00
  0.00000000E+00  0.00000000E+00  0.00000000E+00
  0.00000000E+00  0.00000000E+00  0.00000000E+00
  0.00000000E+00  0.00000000E+00  0.00000000E+00
  0.00000000E+00  0.00000000E+00  0.00000000E+00
  0.00000000E+00  0.00000000E+00  0.00000000E+00
  0.00000000E+00  0.00000000E+00  0.00000000E+00
  0.00000000E+00  0.00000000E+00  0.00000000E+00
  0.00000000E+00  0.00000000E+00  0.00000000E+00
  0.00000000E+00  0.00000000E+00  0.00000000E+00
  0.00000000E+00  0.00000000E+00  0.00000000E+00
  0.00000000E+00  0.00000000E+00  0.00000000E+00
  0.00000000E+00  0.00000000E+00  0.00000000E+00
  0.00000000E+00  0.00000000E+00  0.00000000E+00
  0.00000000E+00  0.00000000E+00  0.00000000E+00
  0.00000000E+00  0.00000000E+00  0.00000000E+00
  0.00000000E+00  0.00000000E+00  0.00000000E+00
  0.00000000E+00  0.00000000E+00  0.00000000E+00
  0.00000000E+00  0.00000000E+00  0.00000000E+00
  0.00000000E+00  0.00000000E+00  0.00000000E+00
  0.00000000E+00  0.00000000E+00  0.00000000E+00
  0.00000000E+00  0.00000000E+00  0.00000000E+00
  0.00000000E+00  0.00000000E+00  0.00000000E+00
  0.00000000E+00  0.00000000E+00  0.00000000E+00
  0.00000000E+00  0.00000000E+00  0.00000000E+00
  0.00000000E+00  0.00000000E+00  0.00000000E+00
  0.00000000E+00  0.00000000E+00  0.00000000E+00
  0.00000000E+00  0.00000000E+00  0.00000000E+00
  0.00000000E+00  0.00000000E+00  0.00000000E+00
  0.00000000E+00  0.00000000E+00  0.00000000E+00
  0.00000000E+00  0.00000000E+00  0.00000000E+00
  0.00000000E+00  0.00000000E+00  0.00000000E+00
  0.00000000E+00  0.00000000E+00  0.00000000E+00
  0.00000000E+00  0.00000000E+00  0.00000000E+00
  0.00000000E+00  0.00000000E+00  0.00000000E+00
  0.00000000E+00  0.00000000E+00  0.00000000E+00
  0.00000000E+00  0.00000000E+00  0.00000000E+00
  0.00000000E+00  0.00000000E+00  0.00000000E+00
  0.00000000E+00  0.00000000E+00  0.00000000E+00
  0.00000000E+00  0.00000000E+00  0.00000000E+00
  0.00000000E+00  0.00000000E+00  0.00000000E+00
  0.00000000E+00  0.00000000E+00  0.00000000E+00
  0.00000000E+00  0.00000000E+00  0.00000000E+00
  0.00000000E+00  0.00000000E+00  0.00000000E+00
  0.00000000E+00  0.00000000E+00  0.00000000E+00
  0.00000000E+00  0.00000000E+00  0.00000000E+00
  0.00000000E+00  0.00000000E+00  0.00000000E+00
  0.00000000E+00  0.00000000E+00  0.00000000E+00
  0.00000000E+00  0.00000000E+00  0.00000000E+00
  0.00000000E+00  0.00000000E+00  0.00000000E+00
  0.00000000E+00  0.00000000E+00  0.00000000E+00
  0.00000000E+00  0.00000000E+00  0.00000000E+00
  0.00000000E+00  0.00000000E+00  0.00000000E+00
  0.00000000E+00  0.00000000E+00  0.00000000E+00
  0.00000000E+00  0.00000000E+00  0.00000000E+00
  0.00000000E+00  0.00000000E+00  0.00000000E+00
  0.00000000E+00  0.00000000E+00  0.00000000E+00
  0.00000000E+00  0.00000000E+00  0.00000000E+00
  0.00000000E+00  0.00000000E+00  0.00000000E+00
  0.00000000E+00  0.00000000E+00  0.00000000E+00
  0.00000000E+00  0.00000000E+00  0.00000000E+00
  0.00000000E+00  0.00000000E+00  0.00000000E+00
  0.00000000E+00  0.00000000E+00  0.00000000E+00
  0.00000000E+00  0.00000000E+00  0.00000000E+00
  0.00000000E+00  0.00000000E+00  0.00000000E+00
  0.00000000E+00  0.00000000E+00  0.00000000E+00
  0.00000000E+00  0.00000000E+00  0.00000000E+00
  0.00000000E+00  0.00000000E+00  0.00000000E+00
  0.00000000E+00  0.00000000E+00  0.00000000E+00
  0.00000000E+00  0.00000000E+00  0.00000000E+00
  0.00000000E+00  0.00000000E+00  0.00000000E+00
  0.00000000E+00  0.00000000E+00  0.00000000E+00
  0.00000000E+00  0.00000000E+00  0.00000000E+00
  0.00000000E+00  0.00000000E+00  0.00000000E+00
  0.00000000E+00  0.00000000E+00  0.00000000E+00
  0.00000000E+00  0.00000000E+00  0.00000000E+00
  0.00000000E+00  0.00000000E+00  0.00000000E+00
  0.00000000E+00  0.00000000E+00  0.00000000E+00
  0.00000000E+00  0.00000000E+00  0.00000000E+00
  0.00000000E+00  0.00000000E+00  0.00000000E+00