Ni  O                                   
    1.000000000000000     
    15.1462217587961998    0.0000000000000000    0.0000000000000000
     7.5731108793980804   13.1170128144700993    0.0000000000000000
     0.0000000000000000    0.0000000000000000   36.3999999999999986
   Ni   O 
   252    64
Direct
  0.4444899524392908  0.4444899524392908  0.0805696894802181
  0.4445311172476137  0.7777344413761933  0.0806724311167474
  0.4444899524392908  0.1110200951214183  0.0805696894802181
  0.7777344413761933  0.4445311172476137  0.0806724311167474
  0.7777344413761933  0.7777344413761933  0.0806724311167474
  0.7775939841684920  0.1112030079157574  0.0805001601323613
  0.1110200951214183  0.4444899524392908  0.0805696894802181
  0.1112030079157574  0.7775939841684920  0.0805001601323613
  0.1112030079157574  0.1112030079157574  0.0805001601323613
  0.5556519650597807  0.5556519650597807  0.1348505209926975
  0.5556519650597807  0.8886960698804385  0.1348505209926975
  0.5556786062721408  0.2221606968639296  0.1349207633844177
  0.8886960698804385  0.5556519650597807  0.1348505209926975
  0.8888022397178503  0.8888022397178503  0.1349592823645650
  0.8888022397178503  0.2223955205642922  0.1349592823645650
  0.2221606968639296  0.5556786062721408  0.1349207633844177
  0.2223955205642922  0.8888022397178503  0.1349592823645650
  0.2221606968639296  0.2221606968639296  0.1349207633844177
  0.6666666666666643  0.6666666666666643  0.1915049561394932
  0.6666352356184969 -0.0001161995627722  0.1916167720045734
  0.6666352356184969  0.3334809639442751  0.1916167720045734
 -0.0001161995627722  0.6666352356184969  0.1916167720045734
  0.0000000000000000 -0.0000000000000000  0.1916745908622415
 -0.0001161995627722  0.3334809639442751  0.1916167720045734
  0.3334809639442751  0.6666352356184969  0.1916167720045734
  0.3334809639442751 -0.0001161995627722  0.1916167720045734
  0.3333333333333357  0.3333333333333357  0.1916963381864469
  0.7779003566520284  0.7779003566520284  0.2484082299869965
  0.7778971508905508  0.1110514245547281  0.2481483859284847
  0.7779003566520284  0.4441992866959436  0.2484082299869965
  0.1110514245547281  0.7778971508905508  0.2481483859284847
  0.1110514245547281  0.1110514245547281  0.2481483859284847
  0.1112259081954378  0.4443870459022810  0.2484829630729488
  0.4441992866959436  0.7779003566520284  0.2484082299869965
  0.4443870459022810  0.1112259081954378  0.2484829630729488
  0.4443870459022810  0.4443870459022810  0.2484829630729488
  0.8888259500519748  0.8888259500519748  0.3032956298781118
  0.8888259500519748  0.2223480998960425  0.3032956298781118
  0.8889031877294047  0.5555484061352979  0.3034827556637720
  0.2223480998960425  0.8888259500519748  0.3032956298781118
  0.2216401398995060  0.2216401398995060  0.3036127205312346
  0.2216401398995060  0.5567197202009880  0.3036127205312346
  0.5555484061352979  0.8889031877294047  0.3034827556637720
  0.5567197202009880  0.2216401398995060  0.3036127205312346
  0.5555484061352979  0.5555484061352979  0.3034827556637720
  0.0000000000000000 -0.0000000000000000  0.3585458545004996
  0.0002466436531022  0.3331085548703972  0.3580007323421632
  0.0002466436531022  0.6666448014765008  0.3580007323421632
  0.3331085548703972  0.0002466436531022  0.3580007323421632
  0.3333333333333357  0.3333333333333357  0.3577834630602155
  0.3331085548703972  0.6666448014765008  0.3580007323421632
  0.6666448014765008  0.0002466436531022  0.3580007323421632
  0.6666448014765008  0.3331085548703972  0.3580007323421632
  0.6666666666666643  0.6666666666666643  0.3592911787088582
  0.1150390991865475  0.1150390991865474  0.4158363398802332
  0.1229843250482014  0.4385078374758993  0.4141199221424806
  0.1150390991865474  0.7699218016269124  0.4158363398802332
  0.4385078374758993  0.1229843250482014  0.4141199221424806
  0.4385078374758993  0.4385078374758993  0.4141199221424806
  0.4512988427575130  0.7743505786212438  0.4096938938527815
  0.7699218016269125  0.1150390991865475  0.4158363398802332
  0.7743505786212437  0.4512988427575131  0.4096938938527815
  0.7743505786212437  0.7743505786212437  0.4096938938527815
  0.2777344413761932  0.2777344413761932  0.0806724311167474
  0.2775939841684923  0.6112030079157575  0.0805001601323613
  0.2777344413761932  0.9445311172476136  0.0806724311167474
  0.6112030079157575  0.2775939841684923  0.0805001601323613
  0.6112030079157575  0.6112030079157575  0.0805001601323613
  0.6110200951214183  0.9444899524392908  0.0805696894802181
  0.9445311172476136  0.2777344413761932  0.0806724311167474
  0.9444899524392908  0.6110200951214183  0.0805696894802181
  0.9444899524392908  0.9444899524392908  0.0805696894802181
  0.3888022397178504  0.3888022397178504  0.1349592823645650
  0.3888022397178504  0.7223955205642921  0.1349592823645650
  0.3886960698804389  0.0556519650597806  0.1348505209926975
  0.7223955205642921  0.3888022397178504  0.1349592823645650
  0.7221606968639295  0.7221606968639295  0.1349207633844177
  0.7221606968639295  0.0556786062721409  0.1349207633844177
  0.0556519650597806  0.3886960698804389  0.1348505209926975
  0.0556786062721409  0.7221606968639295  0.1349207633844177
  0.0556519650597806  0.0556519650597806  0.1348505209926975
  0.5000000000000000  0.5000000000000000  0.1916745908622415
  0.4998838004372277  0.8334809639442756  0.1916167720045734
  0.4998838004372277  0.1666352356184969  0.1916167720045734
  0.8334809639442756  0.4998838004372277  0.1916167720045734
  0.8333333333333357  0.8333333333333357  0.1916963381864469
  0.8334809639442756  0.1666352356184969  0.1916167720045734
  0.1666352356184969  0.4998838004372277  0.1916167720045734
  0.1666352356184969  0.8334809639442756  0.1916167720045734
  0.1666666666666643  0.1666666666666643  0.1915049561394932
  0.6110514245547279  0.6110514245547279  0.2481483859284847
  0.6112259081954381  0.9443870459022810  0.2484829630729488
  0.6110514245547279  0.2778971508905512  0.2481483859284847
  0.9443870459022810  0.6112259081954381  0.2484829630729488
  0.9443870459022810  0.9443870459022810  0.2484829630729488
  0.9441992866959439  0.2779003566520281  0.2484082299869965
  0.2778971508905512  0.6110514245547279  0.2481483859284847
  0.2779003566520281  0.9441992866959439  0.2484082299869965
  0.2779003566520281  0.2779003566520281  0.2484082299869965
  0.7216401398995057  0.7216401398995057  0.3036127205312346
  0.7216401398995057  0.0567197202009879  0.3036127205312346
  0.7223480998960425  0.3888259500519752  0.3032956298781118
  0.0567197202009879  0.7216401398995057  0.3036127205312346
  0.0555484061352976  0.0555484061352976  0.3034827556637720
  0.0555484061352976  0.3889031877294047  0.3034827556637720
  0.3888259500519752  0.7223480998960425  0.3032956298781118
  0.3889031877294048  0.0555484061352976  0.3034827556637720
  0.3888259500519752  0.3888259500519752  0.3032956298781118
  0.8333333333333357  0.8333333333333357  0.3577834630602155
  0.8331085548703975  0.1666448014765006  0.3580007323421632
  0.8331085548703975  0.5002466436531022  0.3580007323421632
  0.1666448014765006  0.8331085548703975  0.3580007323421632
  0.1666666666666643  0.1666666666666643  0.3592911787088582
  0.1666448014765006  0.5002466436531022  0.3580007323421632
  0.5002466436531022  0.8331085548703975  0.3580007323421632
  0.5002466436531022  0.1666448014765006  0.3580007323421632
  0.5000000000000000  0.5000000000000000  0.3585458545004996
  0.9385078374758995  0.9385078374758995  0.4141199221424806
  0.9512988427575128  0.2743505786212436  0.4096938938527815
  0.9385078374758995  0.6229843250482013  0.4141199221424806
  0.2743505786212436  0.9512988427575128  0.4096938938527815
  0.2743505786212436  0.2743505786212435  0.4096938938527815
  0.2699218016269123  0.6150390991865475  0.4158363398802333
  0.6229843250482013  0.9385078374758995  0.4141199221424806
  0.6150390991865475  0.2699218016269123  0.4158363398802332
  0.6150390991865475  0.6150390991865474  0.4158363398802333
  0.2777344413761932  0.4445311172476137  0.0806724311167474
  0.2777344413761932  0.7777344413761933  0.0806724311167474
  0.2775939841684923  0.1112030079157574  0.0805001601323613
  0.6110200951214183  0.4444899524392908  0.0805696894802181
  0.6112030079157575  0.7775939841684920  0.0805001601323613
  0.6112030079157575  0.1112030079157574  0.0805001601323613
  0.9444899524392908  0.4444899524392908  0.0805696894802181
  0.9445311172476136  0.7777344413761933  0.0806724311167474
  0.9444899524392908  0.1110200951214183  0.0805696894802181
  0.3886960698804389  0.5556519650597807  0.1348505209926975
  0.3888022397178504  0.8888022397178503  0.1349592823645650
  0.3888022397178504  0.2223955205642922  0.1349592823645650
  0.7221606968639295  0.5556786062721408  0.1349207633844177
  0.7223955205642921  0.8888022397178503  0.1349592823645650
  0.7221606968639295  0.2221606968639296  0.1349207633844177
  0.0556519650597806  0.5556519650597807  0.1348505209926975
  0.0556519650597806  0.8886960698804385  0.1348505209926975
  0.0556786062721409  0.2221606968639296  0.1349207633844177
  0.4998838004372277  0.6666352356184969  0.1916167720045734
  0.5000000000000000 -0.0000000000000000  0.1916745908622415
  0.4998838004372277  0.3334809639442751  0.1916167720045734
  0.8334809639442756  0.6666352356184969  0.1916167720045734
  0.8334809639442756 -0.0001161995627722  0.1916167720045734
  0.8333333333333357  0.3333333333333357  0.1916963381864469
  0.1666666666666643  0.6666666666666643  0.1915049561394932
  0.1666352356184969 -0.0001161995627722  0.1916167720045734
  0.1666352356184969  0.3334809639442751  0.1916167720045734
  0.6110514245547279  0.7778971508905508  0.2481483859284847
  0.6110514245547279  0.1110514245547281  0.2481483859284847
  0.6112259081954381  0.4443870459022810  0.2484829630729488
  0.9441992866959439  0.7779003566520284  0.2484082299869965
  0.9443870459022810  0.1112259081954378  0.2484829630729488
  0.9443870459022810  0.4443870459022810  0.2484829630729488
  0.2779003566520281  0.7779003566520284  0.2484082299869965
  0.2778971508905512  0.1110514245547281  0.2481483859284847
  0.2779003566520281  0.4441992866959436  0.2484082299869965
  0.7223480998960425  0.8888259500519748  0.3032956298781118
  0.7216401398995057  0.2216401398995060  0.3036127205312346
  0.7216401398995057  0.5567197202009880  0.3036127205312346
  0.0555484061352976  0.8889031877294047  0.3034827556637720
  0.0567197202009879  0.2216401398995060  0.3036127205312346
  0.0555484061352976  0.5555484061352979  0.3034827556637720
  0.3888259500519752  0.8888259500519748  0.3032956298781118
  0.3888259500519752  0.2223480998960425  0.3032956298781118
  0.3889031877294048  0.5555484061352979  0.3034827556637720
  0.8331085548703975  0.0002466436531022  0.3580007323421632
  0.8333333333333357  0.3333333333333357  0.3577834630602155
  0.8331085548703975  0.6666448014765008  0.3580007323421632
  0.1666448014765006  0.0002466436531022  0.3580007323421632
  0.1666448014765006  0.3331085548703972  0.3580007323421632
  0.1666666666666643  0.6666666666666643  0.3592911787088582
  0.5000000000000000 -0.0000000000000000  0.3585458545004996
  0.5002466436531022  0.3331085548703972  0.3580007323421632
  0.5002466436531022  0.6666448014765008  0.3580007323421632
  0.9385078374758995  0.1229843250482014  0.4141199221424806
  0.9385078374758995  0.4385078374758993  0.4141199221424806
  0.9512988427575128  0.7743505786212437  0.4096938938527815
  0.2699218016269123  0.1150390991865475  0.4158363398802332
  0.2743505786212436  0.4512988427575131  0.4096938938527815
  0.2743505786212435  0.7743505786212437  0.4096938938527815
  0.6150390991865474  0.1150390991865474  0.4158363398802333
  0.6229843250482013  0.4385078374758993  0.4141199221424806
  0.6150390991865474  0.7699218016269125  0.4158363398802333
  0.4445311172476137  0.2777344413761932  0.0806724311167474
  0.4444899524392908  0.6110200951214183  0.0805696894802181
  0.4444899524392908  0.9444899524392908  0.0805696894802181
  0.7777344413761933  0.2777344413761932  0.0806724311167474
  0.7775939841684920  0.6112030079157575  0.0805001601323613
  0.7777344413761933  0.9445311172476136  0.0806724311167474
  0.1112030079157574  0.2775939841684923  0.0805001601323613
  0.1112030079157574  0.6112030079157575  0.0805001601323613
  0.1110200951214183  0.9444899524392908  0.0805696894802181
  0.5556519650597807  0.3886960698804389  0.1348505209926975
  0.5556786062721408  0.7221606968639295  0.1349207633844177
  0.5556519650597807  0.0556519650597806  0.1348505209926975
  0.8888022397178503  0.3888022397178504  0.1349592823645650
  0.8888022397178503  0.7223955205642921  0.1349592823645650
  0.8886960698804385  0.0556519650597806  0.1348505209926975
  0.2223955205642922  0.3888022397178504  0.1349592823645650
  0.2221606968639296  0.7221606968639295  0.1349207633844177
  0.2221606968639296  0.0556786062721409  0.1349207633844177
  0.6666352356184969  0.4998838004372277  0.1916167720045734
  0.6666352356184969  0.8334809639442756  0.1916167720045734
  0.6666666666666643  0.1666666666666643  0.1915049561394932
  0.0000000000000000  0.5000000000000000  0.1916745908622415
 -0.0001161995627722  0.8334809639442756  0.1916167720045734
 -0.0001161995627722  0.1666352356184969  0.1916167720045734
  0.3334809639442751  0.4998838004372277  0.1916167720045734
  0.3333333333333357  0.8333333333333357  0.1916963381864469
  0.3334809639442751  0.1666352356184969  0.1916167720045734
  0.7778971508905508  0.6110514245547279  0.2481483859284847
  0.7779003566520284  0.9441992866959439  0.2484082299869965
  0.7779003566520284  0.2779003566520281  0.2484082299869965
  0.1110514245547281  0.6110514245547279  0.2481483859284847
  0.1112259081954378  0.9443870459022810  0.2484829630729488
  0.1110514245547281  0.2778971508905512  0.2481483859284847
  0.4443870459022810  0.6112259081954381  0.2484829630729488
  0.4443870459022810  0.9443870459022810  0.2484829630729488
  0.4441992866959436  0.2779003566520281  0.2484082299869965
  0.8888259500519748  0.7223480998960425  0.3032956298781118
  0.8889031877294047  0.0555484061352976  0.3034827556637720
  0.8888259500519748  0.3888259500519752  0.3032956298781118
  0.2216401398995060  0.7216401398995057  0.3036127205312346
  0.2216401398995060  0.0567197202009879  0.3036127205312346
  0.2223480998960425  0.3888259500519752  0.3032956298781118
  0.5567197202009880  0.7216401398995057  0.3036127205312346
  0.5555484061352979  0.0555484061352976  0.3034827556637720
  0.5555484061352979  0.3889031877294047  0.3034827556637720
  0.0002466436531022  0.8331085548703975  0.3580007323421632
  0.0002466436531022  0.1666448014765006  0.3580007323421632
  0.0000000000000000  0.5000000000000000  0.3585458545004996
  0.3333333333333357  0.8333333333333357  0.3577834630602155
  0.3331085548703972  0.1666448014765006  0.3580007323421632
  0.3331085548703972  0.5002466436531022  0.3580007323421632
  0.6666448014765008  0.8331085548703975  0.3580007323421632
  0.6666666666666643  0.1666666666666643  0.3592911787088582
  0.6666448014765008  0.5002466436531022  0.3580007323421632
  0.1229843250482014  0.9385078374758995  0.4141199221424806
  0.1150390991865474  0.2699218016269123  0.4158363398802332
  0.1150390991865475  0.6150390991865475  0.4158363398802333
  0.4385078374758993  0.9385078374758995  0.4141199221424806
  0.4512988427575130  0.2743505786212436  0.4096938938527815
  0.4385078374758993  0.6229843250482013  0.4141199221424806
  0.7743505786212437  0.9512988427575129  0.4096938938527815
  0.7743505786212437  0.2743505786212435  0.4096938938527815
  0.7699218016269125  0.6150390991865475  0.4158363398802332
  0.0000000000000000 -0.0000000000000000  0.4280195563716204
  0.0194334281678761  0.1012128779103428  0.4800441238409189
 -0.0590135992865415  0.2795067996432709  0.4760119966937929
  0.0194334281678761  0.3793536939217810  0.4800441238409189
  0.0000000000000000  0.5000000000000000  0.4280195563716204
  0.0194334281678761  0.6012128779103428  0.4800441238409189
 -0.0590135992865415  0.7795067996432707  0.4760119966937929
  0.0194334281678761  0.8793536939217806  0.4800441238409189
  0.1012128779103428  0.0194334281678761  0.4800441238409189
  0.1339547376300538  0.1339547376300538  0.5093473787227080
  0.1339547376300538  0.2320905247398924  0.5093473787227080
  0.1012128779103428  0.3793536939217811  0.4800441238409189
  0.1012128779103428  0.5194334281678761  0.4800441238409189
  0.1339547376300538  0.6339547376300537  0.5093473787227080
  0.1339547376300538  0.7320905247398926  0.5093473787227080
  0.1012128779103428  0.8793536939217808  0.4800441238409189
  0.2795067996432709 -0.0590135992865414  0.4760119966937929
  0.2320905247398924  0.1339547376300538  0.5093473787227080
  0.2795067996432709  0.2795067996432709  0.4760119966937929
  0.2372988966085912  0.3813505516957045  0.4600784560340618
  0.2795067996432709  0.4409864007134586  0.4760119966937929
  0.2320905247398924  0.6339547376300537  0.5093473787227080
  0.2795067996432709  0.7795067996432707  0.4760119966937929
  0.2372988966085912  0.8813505516957045  0.4600784560340618
  0.3793536939217811  0.0194334281678761  0.4800441238409189
  0.3793536939217811  0.1012128779103428  0.4800441238409189
  0.3813505516957045  0.2372988966085912  0.4600784560340618
  0.3813505516957045  0.3813505516957045  0.4600784560340618
  0.3793536939217811  0.5194334281678761  0.4800441238409189
  0.3793536939217811  0.6012128779103428  0.4800441238409189
  0.3813505516957045  0.7372988966085910  0.4600784560340618
  0.3813505516957045  0.8813505516957045  0.4600784560340618
  0.5000000000000000 -0.0000000000000000  0.4280195563716204
  0.5194334281678761  0.1012128779103428  0.4800441238409189
  0.4409864007134585  0.2795067996432709  0.4760119966937929
  0.5194334281678761  0.3793536939217810  0.4800441238409189
  0.5000000000000000  0.5000000000000000  0.4280195563716204
  0.5194334281678761  0.6012128779103428  0.4800441238409189
  0.4409864007134585  0.7795067996432707  0.4760119966937929
  0.5194334281678761  0.8793536939217806  0.4800441238409189
  0.6012128779103428  0.0194334281678761  0.4800441238409189
  0.6339547376300537  0.1339547376300538  0.5093473787227080
  0.6339547376300537  0.2320905247398924  0.5093473787227080
  0.6012128779103427  0.3793536939217811  0.4800441238409189
  0.6012128779103428  0.5194334281678761  0.4800441238409189
  0.6339547376300537  0.6339547376300537  0.5093473787227080
  0.6339547376300537  0.7320905247398926  0.5093473787227080
  0.6012128779103427  0.8793536939217808  0.4800441238409189
  0.7795067996432707 -0.0590135992865415  0.4760119966937929
  0.7320905247398926  0.1339547376300538  0.5093473787227080
  0.7795067996432707  0.2795067996432709  0.4760119966937929
  0.7372988966085910  0.3813505516957045  0.4600784560340618
  0.7795067996432707  0.4409864007134585  0.4760119966937929
  0.7320905247398926  0.6339547376300537  0.5093473787227080
  0.7795067996432707  0.7795067996432707  0.4760119966937929
  0.7372988966085910  0.8813505516957045  0.4600784560340618
  0.8793536939217806  0.0194334281678761  0.4800441238409189
  0.8793536939217808  0.1012128779103428  0.4800441238409189
  0.8813505516957045  0.2372988966085912  0.4600784560340618
  0.8813505516957045  0.3813505516957045  0.4600784560340618
  0.8793536939217808  0.5194334281678761  0.4800441238409189
  0.8793536939217808  0.6012128779103428  0.4800441238409189
  0.8813505516957045  0.7372988966085910  0.4600784560340618
  0.8813505516957045  0.8813505516957045  0.4600784560340618
 
  0.00000000E+00  0.00000000E+00  0.00000000E+00
  0.00000000E+00  0.00000000E+00  0.00000000E+00
  0.00000000E+00  0.00000000E+00  0.00000000E+00
  0.00000000E+00  0.00000000E+00  0.00000000E+00
  0.00000000E+00  0.00000000E+00  0.00000000E+00
  0.00000000E+00  0.00000000E+00  0.00000000E+00
  0.00000000E+00  0.00000000E+00  0.00000000E+00
  0.00000000E+00  0.00000000E+00  0.00000000E+00
  0.00000000E+00  0.00000000E+00  0.00000000E+00
  0.00000000E+00  0.00000000E+00  0.00000000E+00
  0.00000000E+00  0.00000000E+00  0.00000000E+00
  0.00000000E+00  0.00000000E+00  0.00000000E+00
  0.00000000E+00  0.00000000E+00  0.00000000E+00
  0.00000000E+00  0.00000000E+00  0.00000000E+00
  0.00000000E+00  0.00000000E+00  0.00000000E+00
  0.00000000E+00  0.00000000E+00  0.00000000E+00
  0.00000000E+00  0.00000000E+00  0.00000000E+00
  0.00000000E+00  0.00000000E+00  0.00000000E+00
  0.00000000E+00  0.00000000E+00  0.00000000E+00
  0.00000000E+00  0.00000000E+00  0.00000000E+00
  0.00000000E+00  0.00000000E+00  0.00000000E+00
  0.00000000E+00  0.00000000E+00  0.00000000E+00
  0.00000000E+00  0.00000000E+00  0.00000000E+00
  0.00000000E+00  0.00000000E+00  0.00000000E+00
  0.00000000E+00  0.00000000E+00  0.00000000E+00
  0.00000000E+00  0.00000000E+00  0.00000000E+00
  0.00000000E+00  0.00000000E+00  0.00000000E+00
  0.00000000E+00  0.00000000E+00  0.00000000E+00
  0.00000000E+00  0.00000000E+00  0.00000000E+00
  0.00000000E+00  0.00000000E+00  0.00000000E+00
  0.00000000E+00  0.00000000E+00  0.00000000E+00
  0.00000000E+00  0.00000000E+00  0.00000000E+00
  0.00000000E+00  0.00000000E+00  0.00000000E+00
  0.00000000E+00  0.00000000E+00  0.00000000E+00
  0.00000000E+00  0.00000000E+00  0.00000000E+00
  0.00000000E+00  0.00000000E+00  0.00000000E+00
  0.00000000E+00  0.00000000E+00  0.00000000E+00
  0.00000000E+00  0.00000000E+00  0.00000000E+00
  0.00000000E+00  0.00000000E+00  0.00000000E+00
  0.00000000E+00  0.00000000E+00  0.00000000E+00
  0.00000000E+00  0.00000000E+00  0.00000000E+00
  0.00000000E+00  0.00000000E+00  0.00000000E+00
  0.00000000E+00  0.00000000E+00  0.00000000E+00
  0.00000000E+00  0.00000000E+00  0.00000000E+00
  0.00000000E+00  0.00000000E+00  0.00000000E+00
  0.00000000E+00  0.00000000E+00  0.00000000E+00
  0.00000000E+00  0.00000000E+00  0.00000000E+00
  0.00000000E+00  0.00000000E+00  0.00000000E+00
  0.00000000E+00  0.00000000E+00  0.00000000E+00
  0.00000000E+00  0.00000000E+00  0.00000000E+00
  0.00000000E+00  0.00000000E+00  0.00000000E+00
  0.00000000E+00  0.00000000E+00  0.00000000E+00
  0.00000000E+00  0.00000000E+00  0.00000000E+00
  0.00000000E+00  0.00000000E+00  0.00000000E+00
  0.00000000E+00  0.00000000E+00  0.00000000E+00
  0.00000000E+00  0.00000000E+00  0.00000000E+00
  0.00000000E+00  0.00000000E+00  0.00000000E+00
  0.00000000E+00  0.00000000E+00  0.00000000E+00
  0.00000000E+00  0.00000000E+00  0.00000000E+00
  0.00000000E+00  0.00000000E+00  0.00000000E+00
  0.00000000E+00  0.00000000E+00  0.00000000E+00
  0.00000000E+00  0.00000000E+00  0.00000000E+00
  0.00000000E+00  0.00000000E+00  0.00000000E+00
  0.00000000E+00  0.00000000E+00  0.00000000E+00
  0.00000000E+00  0.00000000E+00  0.00000000E+00
  0.00000000E+00  0.00000000E+00  0.00000000E+00
  0.00000000E+00  0.00000000E+00  0.00000000E+00
  0.00000000E+00  0.00000000E+00  0.00000000E+00
  0.00000000E+00  0.00000000E+00  0.00000000E+00
  0.00000000E+00  0.00000000E+00  0.00000000E+00
  0.00000000E+00  0.00000000E+00  0.00000000E+00
  0.00000000E+00  0.00000000E+00  0.00000000E+00
  0.00000000E+00  0.00000000E+00  0.00000000E+00
  0.00000000E+00  0.00000000E+00  0.00000000E+00
  0.00000000E+00  0.00000000E+00  0.00000000E+00
  0.00000000E+00  0.00000000E+00  0.00000000E+00
  0.00000000E+00  0.00000000E+00  0.00000000E+00
  0.00000000E+00  0.00000000E+00  0.00000000E+00
  0.00000000E+00  0.00000000E+00  0.00000000E+00
  0.00000000E+00  0.00000000E+00  0.00000000E+00
  0.00000000E+00  0.00000000E+00  0.00000000E+00
  0.00000000E+00  0.00000000E+00  0.00000000E+00
  0.00000000E+00  0.00000000E+00  0.00000000E+00
  0.00000000E+00  0.00000000E+00  0.00000000E+00
  0.00000000E+00  0.00000000E+00  0.00000000E+00
  0.00000000E+00  0.00000000E+00  0.00000000E+00
  0.00000000E+00  0.00000000E+00  0.00000000E+00
  0.00000000E+00  0.00000000E+00  0.00000000E+00
  0.00000000E+00  0.00000000E+00  0.00000000E+00
  0.00000000E+00  0.00000000E+00  0.00000000E+00
  0.00000000E+00  0.00000000E+00  0.00000000E+00
  0.00000000E+00  0.00000000E+00  0.00000000E+00
  0.00000000E+00  0.00000000E+00  0.00000000E+00
  0.00000000E+00  0.00000000E+00  0.00000000E+00
  0.00000000E+00  0.00000000E+00  0.00000000E+00
  0.00000000E+00  0.00000000E+00  0.00000000E+00
  0.00000000E+00  0.00000000E+00  0.00000000E+00
  0.00000000E+00  0.00000000E+00  0.00000000E+00
  0.00000000E+00  0.00000000E+00  0.00000000E+00
  0.00000000E+00  0.00000000E+00  0.00000000E+00
  0.00000000E+00  0.00000000E+00  0.00000000E+00
  0.00000000E+00  0.00000000E+00  0.00000000E+00
  0.00000000E+00  0.00000000E+00  0.00000000E+00
  0.00000000E+00  0.00000000E+00  0.00000000E+00
  0.00000000E+00  0.00000000E+00  0.00000000E+00
  0.00000000E+00  0.00000000E+00  0.00000000E+00
  0.00000000E+00  0.00000000E+00  0.00000000E+00
  0.00000000E+00  0.00000000E+00  0.00000000E+00
  0.00000000E+00  0.00000000E+00  0.00000000E+00
  0.00000000E+00  0.00000000E+00  0.00000000E+00
  0.00000000E+00  0.00000000E+00  0.00000000E+00
  0.00000000E+00  0.00000000E+00  0.00000000E+00
  0.00000000E+00  0.00000000E+00  0.00000000E+00
  0.00000000E+00  0.00000000E+00  0.00000000E+00
  0.00000000E+00  0.00000000E+00  0.00000000E+00
  0.00000000E+00  0.00000000E+00  0.00000000E+00
  0.00000000E+00  0.00000000E+00  0.00000000E+00
  0.00000000E+00  0.00000000E+00  0.00000000E+00
  0.00000000E+00  0.00000000E+00  0.00000000E+00
  0.00000000E+00  0.00000000E+00  0.00000000E+00
  0.00000000E+00  0.00000000E+00  0.00000000E+00
  0.00000000E+00  0.00000000E+00  0.00000000E+00
  0.00000000E+00  0.00000000E+00  0.00000000E+00
  0.00000000E+00  0.00000000E+00  0.00000000E+00
  0.00000000E+00  0.00000000E+00  0.00000000E+00
  0.00000000E+00  0.00000000E+00  0.00000000E+00
  0.00000000E+00  0.00000000E+00  0.00000000E+00
  0.00000000E+00  0.00000000E+00  0.00000000E+00
  0.00000000E+00  0.00000000E+00  0.00000000E+00
  0.00000000E+00  0.00000000E+00  0.00000000E+00
  0.00000000E+00  0.00000000E+00  0.00000000E+00
  0.00000000E+00  0.00000000E+00  0.00000000E+00
  0.00000000E+00  0.00000000E+00  0.00000000E+00
  0.00000000E+00  0.00000000E+00  0.00000000E+00
  0.00000000E+00  0.00000000E+00  0.00000000E+00
  0.00000000E+00  0.00000000E+00  0.00000000E+00
  0.00000000E+00  0.00000000E+00  0.00000000E+00
  0.00000000E+00  0.00000000E+00  0.00000000E+00
  0.00000000E+00  0.00000000E+00  0.00000000E+00
  0.00000000E+00  0.00000000E+00  0.00000000E+00
  0.00000000E+00  0.00000000E+00  0.00000000E+00
  0.00000000E+00  0.00000000E+00  0.00000000E+00
  0.00000000E+00  0.00000000E+00  0.00000000E+00
  0.00000000E+00  0.00000000E+00  0.00000000E+00
  0.00000000E+00  0.00000000E+00  0.00000000E+00
  0.00000000E+00  0.00000000E+00  0.00000000E+00
  0.00000000E+00  0.00000000E+00  0.00000000E+00
  0.00000000E+00  0.00000000E+00  0.00000000E+00
  0.00000000E+00  0.00000000E+00  0.00000000E+00
  0.00000000E+00  0.00000000E+00  0.00000000E+00
  0.00000000E+00  0.00000000E+00  0.00000000E+00
  0.00000000E+00  0.00000000E+00  0.00000000E+00
  0.00000000E+00  0.00000000E+00  0.00000000E+00
  0.00000000E+00  0.00000000E+00  0.00000000E+00
  0.00000000E+00  0.00000000E+00  0.00000000E+00
  0.00000000E+00  0.00000000E+00  0.00000000E+00
  0.00000000E+00  0.00000000E+00  0.00000000E+00
  0.00000000E+00  0.00000000E+00  0.00000000E+00
  0.00000000E+00  0.00000000E+00  0.00000000E+00
  0.00000000E+00  0.00000000E+00  0.00000000E+00
  0.00000000E+00  0.00000000E+00  0.00000000E+00
  0.00000000E+00  0.00000000E+00  0.00000000E+00
  0.00000000E+00  0.00000000E+00  0.00000000E+00
  0.00000000E+00  0.00000000E+00  0.00000000E+00
  0.00000000E+00  0.00000000E+00  0.00000000E+00
  0.00000000E+00  0.00000000E+00  0.00000000E+00
  0.00000000E+00  0.00000000E+00  0.00000000E+00
  0.00000000E+00  0.00000000E+00  0.00000000E+00
  0.00000000E+00  0.00000000E+00  0.00000000E+00
  0.00000000E+00  0.00000000E+00  0.00000000E+00
  0.00000000E+00  0.00000000E+00  0.00000000E+00
  0.00000000E+00  0.00000000E+00  0.00000000E+00
  0.00000000E+00  0.00000000E+00  0.00000000E+00
  0.00000000E+00  0.00000000E+00  0.00000000E+00
  0.00000000E+00  0.00000000E+00  0.00000000E+00
  0.00000000E+00  0.00000000E+00  0.00000000E+00
  0.00000000E+00  0.00000000E+00  0.00000000E+00
  0.00000000E+00  0.00000000E+00  0.00000000E+00
  0.00000000E+00  0.00000000E+00  0.00000000E+00
  0.00000000E+00  0.00000000E+00  0.00000000E+00
  0.00000000E+00  0.00000000E+00  0.00000000E+00
  0.00000000E+00  0.00000000E+00  0.00000000E+00
  0.00000000E+00  0.00000000E+00  0.00000000E+00
  0.00000000E+00  0.00000000E+00  0.00000000E+00
  0.00000000E+00  0.00000000E+00  0.00000000E+00
  0.00000000E+00  0.00000000E+00  0.00000000E+00
  0.00000000E+00  0.00000000E+00  0.00000000E+00
  0.00000000E+00  0.00000000E+00  0.00000000E+00
  0.00000000E+00  0.00000000E+00  0.00000000E+00
  0.00000000E+00  0.00000000E+00  0.00000000E+00
  0.00000000E+00  0.00000000E+00  0.00000000E+00
  0.00000000E+00  0.00000000E+00  0.00000000E+00
  0.00000000E+00  0.00000000E+00  0.00000000E+00
  0.00000000E+00  0.00000000E+00  0.00000000E+00
  0.00000000E+00  0.00000000E+00  0.00000000E+00
  0.00000000E+00  0.00000000E+00  0.00000000E+00
  0.00000000E+00  0.00000000E+00  0.00000000E+00
  0.00000000E+00  0.00000000E+00  0.00000000E+00
  0.00000000E+00  0.00000000E+00  0.00000000E+00
  0.00000000E+00  0.00000000E+00  0.00000000E+00
  0.00000000E+00  0.00000000E+00  0.00000000E+00
  0.00000000E+00  0.00000000E+00  0.00000000E+00
  0.00000000E+00  0.00000000E+00  0.00000000E+00
  0.00000000E+00  0.00000000E+00  0.00000000E+00
  0.00000000E+00  0.00000000E+00  0.00000000E+00
  0.00000000E+00  0.00000000E+00  0.00000000E+00
  0.00000000E+00  0.00000000E+00  0.00000000E+00
  0.00000000E+00  0.00000000E+00  0.00000000E+00
  0.00000000E+00  0.00000000E+00  0.00000000E+00
  0.00000000E+00  0.00000000E+00  0.00000000E+00
  0.00000000E+00  0.00000000E+00  0.00000000E+00
  0.00000000E+00  0.00000000E+00  0.00000000E+00