Al  O                                   
    1.000000000000000     
    14.4150840000000002    0.0000000000000000    0.0000000000000000
    -7.2075420000000001   12.4838279999999990    0.0000000000000000
     0.0000000000000000    0.0000000000000000   36.1162539999999979
   Al   O 
   108   418
Direct
  0.0000000000000000  0.0000000000000000  0.0452438376830332
  0.1121837420614450  0.2234420587837093  0.0194102664136419
  0.1113786872189798  0.2223126671083087  0.1079105577263263
  0.2236179070638544  0.1116445208919783  0.0512368437405229
  0.2222474780565193  0.1120427034917250  0.1666683254868209
  0.0000000000000000  0.0000000000000000  0.1186920314134151
  0.0000000000000000  0.0000000000000000  0.2222482526121012
  0.1106545508446226  0.2215826110685190  0.1797792624391265
  0.1178206925263444  0.2238015249747596  0.2845036399198921
  0.2227643197760748  0.1083859792265235  0.2375870314369165
  0.2190607999587757  0.1129238498037211  0.3284083772436381
  0.0000000000000000  0.0000000000000000  0.2899772213864273
 -0.0019384986157720  0.3317571580073204  0.0447303726819981
  0.1119212166603400  0.5550786098814993  0.0190732360895144
  0.1123277193404920  0.5559375242469098  0.1076314839768007
  0.2219970127566698  0.4442812673989900  0.0513625330146305
  0.2214699300096021  0.4439630776715540  0.1654815121686699
  0.0012897074991041  0.3330426096419487  0.1186240456093084
  0.0003465459082223  0.3356062603416965  0.2223582591219130
  0.1099796869516787  0.5547279424707957  0.1792547352517725
  0.1147682034565558  0.5566751023263707  0.2821619272680621
  0.2233946408397763  0.4453603143287668  0.2376022388139092
  0.2287602512750292  0.4478517856573550  0.3329545029742884
  0.0011266401160836  0.3327913339468011  0.2908317284571768
  0.0001628518729926  0.6666043842273782  0.0444238882787386
  0.1112579833889316  0.8878162579385549  0.0194102664136419
  0.1109336465559964  0.8886213127810200  0.1079105577263263
  0.2222845879756528  0.7780029872433302  0.0513625330146305
  0.2224934809952844  0.7785300699903979  0.1654815121686699
  0.0005244243694211  0.6674080159004194  0.1180378713789132
 -0.0023323455939144  0.6648215885239226  0.2209331149364153
  0.1109277268905639  0.8893454491553778  0.1797792624391265
  0.1059804991150827  0.8821793074736554  0.2845036399198921
  0.2219660068223230  0.7766053591602236  0.2376022388139092
  0.2190918677156584  0.7712397487249707  0.3329545029742884
 -0.0018706737616030  0.6611666783596788  0.2895989065752141
  0.3336956566230923  0.0019384986157720  0.0447303726819981
  0.4442894971067631  0.2243260756917652  0.0162129711630655
  0.4432799807807186  0.2213344403966106  0.1066099639654545
  0.5543430402077969  0.1122082161538383  0.0518951395252832
  0.5555447573497933  0.1109479047030902  0.1647729917266676
  0.3317529021428446 -0.0012897074991041  0.1186240456093084
  0.3352597144334742 -0.0003465459082223  0.2223582591219130
  0.4434597756895826  0.2197571999026744  0.1794880118990339
  0.4426049100422563  0.2171158636229943  0.2826347400981863
  0.5569735304708411  0.1123321102975041  0.2367835253006639
  0.5579467783835746  0.1146417923623029  0.3296647359984822
  0.3316646938307174 -0.0011266401160836  0.2908317284571768
  0.3333956157726217  0.3335584676456141  0.0444238882787386
  0.4449213901185009  0.5568429401121662  0.0190732360895144
  0.4440624757530904  0.5563905284269079  0.1076314839768007
  0.5578655092793666  0.4456569597922030  0.0518951395252832
  0.5554034806866226  0.4444552426502071  0.1647729917266676
  0.3325919840995809  0.3331164084690018  0.1180378713789132
  0.3351784114760770  0.3328460658821629  0.2209331149364153
  0.4452720575292039  0.5552520778142078  0.1792547352517725
  0.4433248976736294  0.5580934344635107  0.2821619272680621
  0.5553589131599885  0.4430264695291586  0.2367835253006639
  0.5566953473120541  0.4420532216164258  0.3296647359984822
  0.3388333216403212  0.3369626478787180  0.2895989065752141
  0.3333333333333357  0.6666666666666643  0.0454509325066813
  0.4431570598878338  0.8880787833396603  0.0190732360895144
  0.4436094715730923  0.8876722806595081  0.1076314839768007
  0.5557187326010099  0.7777154120243471  0.0513625330146305
  0.5560369223284459  0.7775065190047159  0.1654815121686699
  0.3333333333333357  0.6666666666666643  0.1184089351069552
  0.3333333333333357  0.6666666666666643  0.2206227390039068
  0.4447479221857921  0.8900203130483215  0.1792547352517725
  0.4419065655364894  0.8852317965434443  0.2821619272680621
  0.5546396856712332  0.7780339931776771  0.2376022388139092
  0.5521482143426450  0.7809081322843420  0.3329545029742884
  0.3333333333333357  0.6666666666666643  0.2947029107820220
  0.6664415323543859 -0.0001628518729926  0.0444238882787386
  0.7756739243082346  0.2199637547483302  0.0162129711630655
  0.7786655596033892  0.2219458737174406  0.1066099639654545
  0.8883554791080217  0.1119730528385436  0.0512368437405229
  0.8879572965082749  0.1102044412314618  0.1666683254868209
  0.6668835915309979 -0.0005244243694211  0.1180378713789132
  0.6671539341178373  0.0023323455939144  0.2209331149364153
  0.7802428000973255  0.2237029091202406  0.1794880118990339
  0.7828841363770057  0.2254893797525945  0.2826347400981863
  0.8916140207734764  0.1143780072162189  0.2375870314369165
  0.8870761501962791  0.1061366168217220  0.3284083772436381
  0.6630373521212817  0.0018706737616030  0.2895989065752141
  0.6666666666666643  0.3333333333333357  0.0449339529646298
  0.7800362452516694  0.5557105028932371  0.0162129711630656
  0.7780541262825594  0.5567200192192814  0.1066099639654545
  0.8877917838461618  0.4421344907206331  0.0518951395252832
  0.8890520952969095  0.4445965193133773  0.1647729917266676
  0.6666666666666643  0.3333333333333357  0.1197992172527990
  0.6666666666666643  0.3333333333333357  0.2218661952225917
  0.7762970908797592  0.5565402243104175  0.1794880118990339
  0.7745106202474057  0.5573950899577436  0.2826347400981863
  0.8876678897024957  0.4446410868400117  0.2367835253006639
  0.8853582076376970  0.4433046526879459  0.3296647359984822
  0.6666666666666643  0.3333333333333357  0.2918218907744147
  0.6682428419926797  0.6663043433769079  0.0447303726819981
  0.7765579412162910  0.8887420166110684  0.0194102664136420
  0.7776873328916913  0.8890663534440036  0.1079105577263263
  0.8880269471614561  0.7763820929361459  0.0512368437405229
  0.8897955587685384  0.7777525219434805  0.1666683254868209
  0.6669573903580513  0.6682470978571552  0.1186240456093084
  0.6643937396583036  0.6647402855665258  0.2223582591219130
  0.7784173889314808  0.8890722731094357  0.1797792624391265
  0.7761984750252401  0.8940195008849173  0.2845036399198921
  0.8856219927837812  0.7772356802239248  0.2375870314369165
  0.8938633831782780  0.7809392000412245  0.3284083772436381
  0.6672086660531990  0.6683353061692826  0.2908317284571768
  0.1061124052542159 -0.0013314560805651  0.0814007233185903
  0.2267044245773874  0.0088795064432343  0.0193733848861150
  0.0013314560805651  0.1074438613347809  0.0814007233185903
  0.2279382908111616  0.2275330718182762  0.0813989191008580
  0.3256968844589417  0.2191938904664697  0.0184389141822435
  0.1150556678158361  0.1065543641832050  0.0194712486036394
  0.3213837298554666  0.1115682122805412  0.2017779067860979
  0.1059509667479541  0.1165976089592610  0.1446855024786232
  0.2206484220956135  0.2096752087471300  0.2019600406448432
  0.1212656700321017  0.0095390000087964  0.2027931533339227
  0.2162042197165958  0.3218417253850899  0.1443831456548794
  0.0120618931845795  0.2263001914462359  0.1449499253346677
  0.2261526139478754  0.2284482344552929  0.3140551112191499
  0.0067738196800872  0.2343399542681928  0.2574904850296896
  0.1190460224327809  0.3315531899969519  0.3124776978830589
  0.0075606223837730  0.1170287932825327  0.3128175988719228
  0.1033163867269923  0.1027695827454208  0.2593365025081060
  0.2275661345881055 -0.0067738196800872  0.2574904850296896
  0.1072861272952454  0.3324246779885540  0.0815460778724000
  0.2269430933133134  0.3426294863962679  0.0194879385598501
  0.0009052542669199  0.4398238156299660  0.0813376214849141
  0.2278666619455938  0.5601012739441883  0.0818554013776764
  0.3244021621323507  0.5509541772201900  0.0195156875130367
  0.1138378519028363  0.4394680026821232  0.0196104222919929
  0.3225862006284748  0.4447081431538117  0.2010107233775335
  0.1064423523640062  0.4500783631007044  0.1436811798054059
  0.2192278931845927  0.5418096619279953  0.2008514910831159
  0.1206631790565966  0.3424256999242718  0.2013317283545561
  0.2170248371620215  0.6561875213968509  0.1439472118217686
  0.0122488264530762  0.5610431744747783  0.1438688214373749
  0.2175849093489197  0.5518535854088092  0.3145350240232509
 -0.0000244204339480  0.5622557762209740  0.2568600203573172
  0.1117223502133649  0.6621176591496351  0.3110044165653580
  0.0012694709322067  0.4488724167130771  0.3103604828519851
  0.1042549042013677  0.4397694823671288  0.2580584440738647
  0.2332341300295880  0.3327921430346761  0.2580727278566075
  0.1058528269325050  0.6649468607672605  0.0813336485502904
  0.2265523484211791  0.6755978378676495  0.0195156875130368
 -0.0004052189928853  0.7720617091888383  0.0813989191008580
  0.2251385506933086  0.8927138727047547  0.0815460778724000
  0.3256304841126192  0.8861621480971638  0.0196104222919929
  0.1156867264162869  0.7730569066866866  0.0194879385598501
  0.3225821020767426  0.7807721068154075  0.2008514910831159
  0.1056371723351616  0.7837957802834042  0.1443831456548794
  0.2217628542010077  0.8793368209434035  0.2013317283545561
  0.1221222758586693  0.6774137993715249  0.2010107233775335
  0.2142379649283241 -0.0120618931845795  0.1449499253346677
  0.0106463088779744  0.8940490332520459  0.1446855024786232
  0.2125068342308385  0.8809539775672193  0.3124776978830589
 -0.0005468039815715  0.8966836132730077  0.2593365025081060
  0.1094678375654272 -0.0075606223837730  0.3128175988719228
  0.0022952871740850  0.7738473860521248  0.3140551112191499
  0.0995580130050880  0.7667658699704120  0.2580727278566075
  0.2304082528756898  0.6639510680496389  0.2570838545323109
  0.4389185613630461 -0.0009052542669199  0.0813376214849141
  0.5604329813158114  0.0102442674318638  0.0196817379674509
  0.3319054179572522  0.1047380487551067  0.0816381800113137
  0.5612810042425633  0.2270426030338967  0.0820448500236178
  0.6577434229316743  0.2188340630608605  0.0196491565172918
  0.4462723016379495  0.1088173849013169  0.0200662745122248
  0.6565119574227188  0.1141412727221288  0.2012704886026544
  0.4385820171386552  0.1155614978225857  0.1440589697678817
  0.5538486123407551  0.2108707884473743  0.2012523499310487
  0.4581680905917038  0.0104050517457380  0.2019126708545032
  0.5495092823276799  0.3234804471043206  0.1440936261348324
  0.3419828916093388  0.2255614877880633  0.1432128616002959
  0.5477985141220015  0.2179554860577979  0.3111120406575644
  0.3372003491011156  0.2299795556939963  0.2565570041182661
  0.4536858670019570  0.3309309252848994  0.3091470879613749
  0.3356891842587708  0.1177593480563637  0.3114972733794317
  0.4340540369527511  0.1018186625806458  0.2561265456376711
  0.5622801966549223  0.0000244204339480  0.2568600203573172
  0.4396141881884424  0.3332917518754675  0.0811667512090220
  0.5610909734625117  0.3422565770683257  0.0196491565172918
  0.3350531392327394  0.4409059661652375  0.0813336485502904
  0.5601761843700340  0.5610814386369540  0.0813376214849141
  0.6625454165966999  0.5537276983620503  0.0200662745122248
  0.4498116194493849  0.4395670186841885  0.0196817379674509
  0.6570225094399447  0.4461513876592448  0.2012523499310487
  0.4389568255252217  0.4512059853116303  0.1438688214373749
  0.5522372944873666  0.5418319094082963  0.2019126708545032
  0.4576296486327425  0.3434880425772813  0.2012704886026544
  0.5499216368992955  0.6563643225966340  0.1436811798054059
  0.3438124786031492  0.5608376490984961  0.1439472118217686
  0.5511275832869229  0.5523973875524623  0.3103604828519851
  0.3360489319503611  0.5664571848260510  0.2570838545323109
  0.4481464145911910  0.6657316572734362  0.3145350240232509
  0.3378823408503648  0.4496050243970619  0.3110044165653580
  0.4377442237790258  0.4377198033450780  0.2568600203573172
  0.5637732952049902  0.3299674234993419  0.2573941824723530
  0.4398987260558118  0.6677653880014057  0.0818554013776764
  0.5605319973178766  0.6743695158873808  0.0196104222919929
  0.3322346119985943  0.7721333380544062  0.0818554013776764
  0.5590940338347625  0.8941471730674948  0.0813336485502904
  0.6573705136037322  0.8843132735837134  0.0194879385598501
  0.4490458227798099  0.7734476515788206  0.0195156875130368
  0.6575743000757280  0.7782371457989919  0.2013317283545561
  0.4391623509015041  0.7829751628379787  0.1439472118217686
  0.5552918568461884  0.8778777241413306  0.2010107233775335
  0.4581903380720043  0.6774178979232571  0.2008514910831159
  0.5487940146883699 -0.0122488264530762  0.1438688214373749
  0.3436356774033659  0.8935576476359938  0.1436811798054059
  0.5503949756029379  0.8882776497866349  0.3110044165653580
  0.3355145781657685  0.8957450957986322  0.2580584440738647
  0.4476026124475377 -0.0012694709322068  0.3103604828519851
  0.3342683427265637  0.7824150906510798  0.3145350240232509
  0.4335428151739490  0.7695917471243100  0.2570838545323109
  0.5602305176328708  0.6644854218342319  0.2580584440738647
  0.7724669281817234  0.0004052189928853  0.0813989191008580
  0.8934456358167949  0.0085009702992986  0.0194712486036394
  0.6667082481245322  0.1063224363129817  0.0811667512090220
  0.8952619512448933  0.2271673692021455  0.0816381800113137
 -0.0088795064432342  0.2178245848008206  0.0193733848861150
  0.7808061095335302  0.1065026606591397  0.0184389141822435
  0.9904609999912035  0.1117263366899729  0.2027931533339227
  0.7744385122119369  0.1164217371546079  0.1432128616002959
  0.8884317877194590  0.2098151842415931  0.2017779067860979
  0.7903247912528698  0.0109728800151510  0.2019600406448432
  0.8844385021774142  0.3230208526494019  0.1440589697678817
  0.6765195528956797  0.2260291685566991  0.1440936261348324
  0.8822406519436367  0.2179301695357395  0.3114972733794317
  0.6700325765006582  0.2338058717056483  0.2573941824723530
  0.7820445139422022  0.3298433613975434  0.3111120406575644
  0.6690690747151001  0.1227552750503897  0.3091470879613749
  0.7700204443060041  0.1072207934071194  0.2565570041182661
  0.8972304172545792  0.0005468039815715  0.2593365025081060
  0.7729573969661032  0.3342384012086668  0.0820448500236178
  0.8911826150986832  0.3374545834033000  0.0200662745122248
  0.6657615987913331  0.4387189957574363  0.0820448500236178
  0.8936775636870182  0.5603858118115581  0.0811667512090220
  0.9897557325681363  0.5501883805506150  0.0196817379674509
  0.7811659369391397  0.4389090265374883  0.0196491565172918
  0.9895949482542619  0.4477627055126335  0.2019126708545032
  0.7739708314433009  0.4504907176723203  0.1440936261348324
  0.8858587272778708  0.5423703513672575  0.2012704886026544
  0.7891292115526255  0.3429774905600557  0.2012523499310487
  0.8835782628453919  0.6580171083906612  0.1432128616002959
  0.6769791473505979  0.5614179828613450  0.1440589697678817
  0.8772447249496104  0.5463141329980434  0.3091470879613749
  0.6677646256278879  0.5659459630472490  0.2561265456376711
  0.7820698304642604  0.6643108157412294  0.3114972733794317
  0.6701566386024564  0.4522014858779984  0.3111120406575644
  0.7661941282943516  0.4362267047950098  0.2573941824723530
  0.8981813374193540  0.3322353743721124  0.2561265456376711
  0.7728326307978548  0.6680945820427476  0.0816381800113137
  0.8934973393408603  0.6743031155410579  0.0184389141822435
  0.6675753220114463  0.7748614493066915  0.0815460778724000
  0.8925561386652189  0.8938875947457844  0.0814007233185903
 -0.0085009702992986  0.8849443321841641  0.0194712486036394
  0.7821754151991793  0.7732955754226126  0.0193733848861150
  0.9890271199848492  0.7793515779043863  0.2019600406448432
  0.7736998085537640  0.7857620350716760  0.1449499253346677
  0.8882736633100272  0.8787343299678984  0.2027931533339227
  0.7901848157584065  0.6786162701445333  0.2017779067860979
  0.8834023910407387 -0.0106463088779745  0.1446855024786232
  0.6781582746149100  0.8943628276648381  0.1443831456548794
  0.8829712067174674  0.8905321624345729  0.3128175988719228
  0.6672078569653241  0.9004419869949120  0.2580727278566075
  0.7715517655447071 -0.0022952871740850  0.3140551112191499
  0.6684468100030480  0.7874931657691616  0.3124776978830589
  0.7656600457318073  0.7724338654118945  0.2574904850296896
  0.8927792065928807  0.6627996508988845  0.2565570041182661
  0.0000000000000000  0.0000000000000000  0.3443927772836189
  0.0000000000000000  0.0000000000000000  0.4338755083278899
  0.0000000000000000  0.0000000000000000  0.4681104317464932
  0.0000000000000000  0.0000000000000000  0.5311073932668979
 -0.0224887269564260  0.1125426376846314  0.3882101337246808
 -0.0049608370096166  0.1257803128386743  0.4456465638304624
 -0.0007094256454621  0.1240679139703700  0.4801236839827101
 -0.0028738464840336  0.0894079796477302  0.5477632651134891
  0.0014401753384390  0.2525916421439961  0.3523369618805537
 -0.0033432344656016  0.2457766103449014  0.4415905523518783
  0.0009931790114628  0.2552910952932685  0.4758102015019635
 -0.0122784347481543  0.2068068919986849  0.5374224993937581
  0.0356142254928778  0.3944710960280011  0.3534040720037017
 -0.0032367762639253  0.3739388938830455  0.4358096627911939
 -0.0114317267543388  0.3747425689094966  0.4696676925571004
 -0.0359532757520770  0.3480501135095240  0.5486715835900010
 -0.0179452108792679  0.5018837533147794  0.3790289995848010
 -0.0093133333062221  0.4937734283421312  0.4400538365673877
 -0.0112721368094106  0.4882799904659412  0.4738550098733662
  0.0149087877136701  0.5315671015261565  0.5456093207763493
 -0.0098444500746767  0.6279020862097586  0.3481558851435587
 -0.0011595478210886  0.6255967400633452  0.4369372169151909
 -0.0009845168327584  0.6220162054511358  0.4713233003760888
  0.0095271367593569  0.6224223029233932  0.5355495376229255
  0.0538236214813167  0.7880266898145817  0.3856183864983683
 -0.0058521837221158  0.7478908561495148  0.4428625164352185
  0.0013324615745937  0.7507681419121349  0.4770690130816084
 -0.0213798097070101  0.7343457676142934  0.5464874992513802
 -0.0234607388611347  0.8961800005029639  0.3701570674867734
  0.0000117643000902  0.8750348587274689  0.4369554552077624
  0.0023260922854265  0.8775269557249307  0.4713855226239478
 -0.0101543421775898  0.8340426702218191  0.5352794423207473
  0.1350313646410573  0.0224887269564260  0.3882101337246808
  0.1307411498482909  0.0049608370096166  0.4456465638304624
  0.1247773396158322  0.0007094256454621  0.4801236839827101
  0.0922818261317638  0.0028738464840336  0.5477632651134891
  0.1038199994970366  0.0803592606359019  0.3701570674867734
  0.1249651412725311  0.1249769055726214  0.4369554552077624
  0.1224730442750694  0.1247991365604959  0.4713855226239478
  0.1659573297781808  0.1558029876005911  0.5352794423207474
  0.1321687366974152  0.2358924767617810  0.3626700214531098
  0.1238799446058362  0.2485606355832164  0.4372169353972594
  0.1250335981824496  0.2496980219956111  0.4713822184113737
  0.1287254396960990  0.2525161345833534  0.5432795893061619
  0.0686721317487739  0.3139125709735156  0.3795736850679012
  0.1223226729728914  0.3752449438411217  0.4391836622347146
  0.1211552706072622  0.3743858625593453  0.4734247533813781
  0.1104155925876021  0.3759405731614243  0.5330275407826455
  0.0769818735147093  0.4848217762344096  0.3697377289581552
  0.1250439588106585  0.5009423704252991  0.4387040984860036
  0.1227210433172043  0.4992859309108469  0.4728177584841712
  0.1300005291483649  0.4717783217249200  0.5423474601282429
  0.1535909764795365  0.6263302583300876  0.3804231548523607
  0.1210847304112773  0.6222136400576116  0.4395941934797574
  0.1196500060668602  0.6208185510023435  0.4736903156282164
  0.1201143075433123  0.6139927362755015  0.5426136298923224
  0.0934836095746012  0.7212984706553236  0.3792832226973186
  0.1255252175955253  0.7512929860705480  0.4396406727723656
  0.1242061776028247  0.7507117675898324  0.4737069500890674
  0.1579482608812909  0.7907257706374113  0.5414094459526995
  0.1037237400643657  0.8678312633025849  0.3626700214531098
  0.1246806909773802  0.8761200553941637  0.4372169353972594
  0.1246644238131615  0.8749664018175506  0.4713822184113737
  0.1237906948872545  0.8712745603039010  0.5432795893061619
  0.2511514668055571 -0.0014401753384390  0.3523369618805537
  0.2491198448105031  0.0033432344656016  0.4415905523518783
  0.2542979162818058 -0.0009931790114628  0.4758102015019635
  0.2190853267468393  0.0122784347481543  0.5374224993937581
  0.2603855944340792  0.1353005507352227  0.3863185895052667
  0.2537435015674730  0.1265345644641206  0.4506476719762347
  0.2569147775947826  0.1263650911197933  0.4847353770564077
  0.2722662897431935  0.0897332583569758  0.5627692715949361
  0.2119733101854180  0.2657969316667348  0.3856183864983683
  0.2521091438504852  0.2462569601283695  0.4428625164352185
  0.2492318580878650  0.2505643196624588  0.4770690130816084
  0.2656542323857066  0.2442744226786966  0.5464874992513801
  0.2787015293446765  0.3721851389192780  0.3792832226973186
  0.2487070139294517  0.3742322315249771  0.4396406727723656
  0.2492882324101678  0.3734944100129924  0.4737069500890674
  0.2092742293625888  0.3672224902438795  0.5414094459526995
  0.2062931552017548  0.4799098449893445  0.3825480805589013
  0.2513375036334652  0.4993282773528429  0.4424671903662393
  0.2508205279105887  0.4989274921331696  0.4766570532542536
  0.2730484281729401  0.5262132814726636  0.5550975351984722
  0.2506344539315156  0.6724306928668859  0.3705381987345812
  0.2491967157950316  0.6244002297227575  0.4375031918323242
  0.2503308987171189  0.6252301534698262  0.4714562791848855
  0.2385695780105025  0.6252776413057956  0.5339876775306390
  0.2736166897875897  0.7937068447982450  0.3825480805589013
  0.2479907737193779  0.7486624963665346  0.4424671903662393
  0.2481069642225807  0.7491794720894109  0.4766570532542536
  0.2531648532997235  0.7269515718270599  0.5550975351984722
  0.2452404392247416  0.9313278682512258  0.3795736850679012
  0.2529222708682303  0.8776773270271087  0.4391836622347146
  0.2532305919520833  0.8788447293927377  0.4734247533813781
  0.2655249805738225  0.8895844074123977  0.5330275407826455
  0.3588568705351233 -0.0356142254928778  0.3534040720037017
  0.3771756701469709  0.0032367762639253  0.4358096627911939
  0.3861742956638355  0.0114317267543388  0.4696676925571004
  0.3840033892616010  0.0359532757520770  0.5486715835900010
  0.3319415299263256  0.1074620450978898  0.3795306363877014
  0.3763259472431456  0.1277341501030143  0.4379443137911813
  0.3908364078126159  0.1266745972411532  0.4711501023675956
  0.3620447473291576  0.1277249352047317  0.5386914705207420
  0.3539516757118521  0.2692006828085414  0.3623854685850216
  0.3757912487837168  0.2509507942723039  0.4436207704022502
  0.3833588639747292  0.2549059152850166  0.4776416635390534
  0.3566721435773691  0.2557518120127811  0.5358143992876292
  0.3720979137902414  0.3622534637155645  0.3481558851435587
  0.3744032599366547  0.3732437121155660  0.4369372169151909
  0.3779837945488643  0.3769992777161061  0.4713233003760888
  0.3775776970766066  0.3871048338359636  0.5355495376229255
  0.3736697416699125  0.5272607181494492  0.3804231548523607
  0.3777863599423882  0.4988710903536653  0.4395941934797574
  0.3791814489976568  0.4988314550645167  0.4736903156282164
  0.3860072637244984  0.5061215712678108  0.5426136298923224
  0.3275693071331145  0.5782037610646299  0.3705381987345812
  0.3755997702772426  0.6247964860722743  0.4375031918323242
  0.3747698465301737  0.6251007452472922  0.4714562791848855
  0.3747223586942047  0.6132919367047071  0.5339876775306390
  0.4217962389353703  0.7493655460684843  0.3705381987345812
  0.3752035139277258  0.7508032842049686  0.4375031918323242
  0.3748992547527071  0.7496691012828810  0.4714562791848855
  0.3867080632952928  0.7614304219894975  0.5339876775306390
  0.4078399027197003  0.9230181264852909  0.3697377289581552
  0.3758984116146405  0.8749560411893414  0.4387040984860036
  0.3765648875936425  0.8772789566827958  0.4728177584841712
  0.3417777925765551  0.8699994708516351  0.5423474601282429
  0.5198289641940471  0.0179452108792679  0.3790289995848010
  0.5030867616483536  0.0093133333062221  0.4400538365673877
  0.4995521272753520  0.0112721368094106  0.4738550098733662
  0.5166583138124863 -0.0149087877136701  0.5456093207763493
  0.4804537851703948  0.1001043754307032  0.3816538405970435
  0.4962483463910214  0.1325944642727430  0.4138773562229979
  0.5023541023951813  0.1405717539285047  0.5055977898705074
  0.4883523290816542  0.0922202556442411  0.5402118674392189
  0.5026360097439362  0.2583292745450533  0.3625669506991482
  0.4968999910246607  0.2507012720826138  0.4363943295617269
  0.5053101437307752  0.2435994879313332  0.4698142247450143
  0.4948431454139349  0.2485381244498761  0.5505042982580557
  0.4328992550863251  0.2843486207675202  0.3878616679002785
  0.5055028570422921  0.3794560672012628  0.4404870650481598
  0.5110438952312966  0.3796622036641409  0.4742931323058673
  0.5151843146341210  0.3504806658381759  0.5503975952003088
  0.4981162466852209  0.4801710358059531  0.3790289995848010
  0.5062265716578686  0.4969132383516464  0.4400538365673877
  0.5117200095340588  0.5004478727246483  0.4738550098733662
  0.4684328984738437  0.4833416861875136  0.5456093207763493
  0.5151782237655902  0.5921600972802996  0.3697377289581552
  0.4990576295747011  0.6241015883853599  0.4387040984860036
  0.5007140690891532  0.6234351124063575  0.4728177584841712
  0.5282216782750802  0.6582222074234446  0.5423474601282429
  0.5200901550106555  0.7263833102124101  0.3825480805589013
  0.5006717226471569  0.7520092262806221  0.4424671903662393
  0.5010725078668306  0.7518930357774192  0.4766570532542536
  0.4737867185273364  0.7468351467002770  0.5550975351984722
  0.4727392818505510  0.8464090235204638  0.3804231548523607
  0.5011289096463343  0.8789152695887228  0.4395941934797574
  0.5011685449354832  0.8803499939331400  0.4736903156282164
  0.4938784287321891  0.8798856924566876  0.5426136298923224
  0.6377465362844355  0.0098444500746767  0.3481558851435587
  0.6267562878844338  0.0011595478210886  0.4369372169151909
  0.6230007222838941  0.0009845168327584  0.4713233003760888
  0.6128951661640362 -0.0095271367593569  0.5355495376229255
  0.7156513792324792  0.1485506343188047  0.3878616679002786
  0.6205439327987370  0.1260467898410290  0.4404870650481598
  0.6203377963358593  0.1313816915671558  0.4742931323058673
  0.6495193341618239  0.1647036487959449  0.5503975952003088
  0.6481831392491894  0.2374072735259779  0.3647816757483995
  0.6204370169812702  0.2479062093116495  0.4334761613673070
  0.6173066866293825  0.2466470833904530  0.4676023940276885
  0.6220414146999601  0.2474109124082561  0.5415174757585294
  0.5892241342767883  0.3518168607508107  0.3647816757483995
  0.6274691923303796  0.3795629830187300  0.4334761613673070
  0.6293403967610703  0.3826933133706175  0.4676023940276885
  0.6253694977082959  0.3779585853000397  0.5415174757585294
  0.6196505902603083  0.5195462148296052  0.3816538405970435
  0.6363461178817212  0.5037516536089784  0.4138773562229979
  0.6382176515333241  0.4976458976048190  0.5055977898705074
  0.6038679265625868  0.5116476709183461  0.5402118674392189
  0.6055289039719990  0.6411431294648765  0.3534040720037017
  0.6260611061169545  0.6228243298530290  0.4358096627911939
  0.6252574310905031  0.6138257043361645  0.4696676925571004
  0.6519498864904759  0.6159966107383991  0.5486715835900010
  0.6860874290264847  0.7547595607752586  0.3795736850679012
  0.6247550561588782  0.7470777291317697  0.4391836622347146
  0.6256141374406543  0.7467694080479168  0.4734247533813781
  0.6240594268385755  0.7344750194261780  0.5330275407826455
  0.6278148610807224  0.9065163904253992  0.3792832226973186
  0.6257677684750227  0.8744747824044746  0.4396406727723656
  0.6265055899870074  0.8757938223971754  0.4737069500890674
  0.6327775097561203  0.8420517391187093  0.5414094459526995
  0.7342030683332654 -0.0538236214813168  0.3856183864983683
  0.7537430398716306  0.0058521837221158  0.4428625164352185
  0.7494356803375415 -0.0013324615745937  0.4770690130816084
  0.7557255773213033  0.0213798097070101  0.5464874992513802
  0.7307993171914590  0.0847509929033109  0.3623854685850216
  0.7490492057276961  0.1248404545114128  0.4436207704022502
  0.7450940847149836  0.1284529486897128  0.4776416635390534
  0.7442481879872187  0.1009203315645879  0.5358143992876292
  0.7416707254549463  0.2443067351988828  0.3625669506991482
  0.7492987279173862  0.2461987189420469  0.4363943295617269
  0.7564005120686668  0.2617106557994420  0.4698142247450143
  0.7514618755501234  0.2463050209640586  0.5505042982580557
  0.7625927264740219  0.4107758657232114  0.3647816757483995
  0.7520937906883507  0.3725308076696205  0.4334761613673070
  0.7533529166095470  0.3706596032389298  0.4676023940276885
  0.7525890875917440  0.3746305022917042  0.5415174757585294
  0.7556932648011172  0.4973639902560640  0.3625669506991482
  0.7538012810579531  0.5031000089753392  0.4363943295617269
  0.7382893442005580  0.4946898562692249  0.4698142247450143
  0.7536949790359414  0.5051568545860652  0.5505042982580557
  0.7755205151715640  0.6680584700736742  0.3795306363877014
  0.7514082028598688  0.6236740527568544  0.4379443137911813
  0.7358381894285375  0.6091635921873840  0.4711501023675956
  0.7656801878755745  0.6379552526708427  0.5386914705207420