Ni4 O4
1.0
       12.6498584747         0.0000000000         0.0000000000
        0.0000000000        12.6498584747         0.0000000000
        0.0000000000         0.0000000000        12.6498584747
   Ni    O
  108  108
Direct
     0.000000000         0.000000000         0.000000000
     0.000000000         0.000000000         0.333333343
     0.000000000         0.000000000         0.666666687
     0.000000000         0.333333343         0.000000000
     0.000000000         0.333333343         0.333333343
     0.000000000         0.333333343         0.666666687
     0.000000000         0.666666687         0.000000000
     0.000000000         0.666666687         0.333333343
     0.000000000         0.666666687         0.666666687
     0.333333343         0.000000000         0.000000000
     0.333333343         0.000000000         0.333333343
     0.333333343         0.000000000         0.666666687
     0.333333343         0.333333343         0.000000000
     0.333333343         0.333333343         0.333333343
     0.333333343         0.333333343         0.666666687
     0.333333343         0.666666687         0.000000000
     0.333333343         0.666666687         0.333333343
     0.333333343         0.666666687         0.666666687
     0.666666687         0.000000000         0.000000000
     0.666666687         0.000000000         0.333333343
     0.666666687         0.000000000         0.666666687
     0.666666687         0.333333343         0.000000000
     0.666666687         0.333333343         0.333333343
     0.666666687         0.333333343         0.666666687
     0.666666687         0.666666687         0.000000000
     0.666666687         0.666666687         0.333333343
     0.666666687         0.666666687         0.666666687
     0.000000000         0.166666672         0.166666672
     0.000000000         0.166666672         0.500000000
     0.000000000         0.166666672         0.833333313
     0.000000000         0.500000000         0.166666672
     0.000000000         0.500000000         0.500000000
     0.000000000         0.500000000         0.833333313
     0.000000000         0.833333313         0.166666672
     0.000000000         0.833333313         0.500000000
     0.000000000         0.833333313         0.833333313
     0.333333343         0.166666672         0.166666672
     0.333333343         0.166666672         0.500000000
     0.333333343         0.166666672         0.833333313
     0.333333343         0.500000000         0.166666672
     0.333333343         0.500000000         0.500000000
     0.333333343         0.500000000         0.833333313
     0.333333343         0.833333313         0.166666672
     0.333333343         0.833333313         0.500000000
     0.333333343         0.833333313         0.833333313
     0.666666687         0.166666672         0.166666672
     0.666666687         0.166666672         0.500000000
     0.666666687         0.166666672         0.833333313
     0.666666687         0.500000000         0.166666672
     0.666666687         0.500000000         0.500000000
     0.666666687         0.500000000         0.833333313
     0.666666687         0.833333313         0.166666672
     0.666666687         0.833333313         0.500000000
     0.666666687         0.833333313         0.833333313
     0.166666672         0.000000000         0.166666672
     0.166666672         0.000000000         0.500000000
     0.166666672         0.000000000         0.833333313
     0.166666672         0.333333343         0.166666672
     0.166666672         0.333333343         0.500000000
     0.166666672         0.333333343         0.833333313
     0.166666672         0.666666687         0.166666672
     0.166666672         0.666666687         0.500000000
     0.166666672         0.666666687         0.833333313
     0.500000000         0.000000000         0.166666672
     0.500000000         0.000000000         0.500000000
     0.500000000         0.000000000         0.833333313
     0.500000000         0.333333343         0.166666672
     0.500000000         0.333333343         0.500000000
     0.500000000         0.333333343         0.833333313
     0.500000000         0.666666687         0.166666672
     0.500000000         0.666666687         0.500000000
     0.500000000         0.666666687         0.833333313
     0.833333313         0.000000000         0.166666672
     0.833333313         0.000000000         0.500000000
     0.833333313         0.000000000         0.833333313
     0.833333313         0.333333343         0.166666672
     0.833333313         0.333333343         0.500000000
     0.833333313         0.333333343         0.833333313
     0.833333313         0.666666687         0.166666672
     0.833333313         0.666666687         0.500000000
     0.833333313         0.666666687         0.833333313
     0.166666672         0.166666672         0.000000000
     0.166666672         0.166666672         0.333333343
     0.166666672         0.166666672         0.666666687
     0.166666672         0.500000000         0.000000000
     0.166666672         0.500000000         0.333333343
     0.166666672         0.500000000         0.666666687
     0.166666672         0.833333313         0.000000000
     0.166666672         0.833333313         0.333333343
     0.166666672         0.833333313         0.666666687
     0.500000000         0.166666672         0.000000000
     0.500000000         0.166666672         0.333333343
     0.500000000         0.166666672         0.666666687
     0.500000000         0.500000000         0.000000000
     0.500000000         0.500000000         0.333333343
     0.500000000         0.500000000         0.666666687
     0.500000000         0.833333313         0.000000000
     0.500000000         0.833333313         0.333333343
     0.500000000         0.833333313         0.666666687
     0.833333313         0.166666672         0.000000000
     0.833333313         0.166666672         0.333333343
     0.833333313         0.166666672         0.666666687
     0.833333313         0.500000000         0.000000000
     0.833333313         0.500000000         0.333333343
     0.833333313         0.500000000         0.666666687
     0.833333313         0.833333313         0.000000000
     0.833333313         0.833333313         0.333333343
     0.833333313         0.833333313         0.666666687
     0.166666672         0.000000000         0.000000000
     0.166666672         0.000000000         0.333333343
     0.166666672         0.000000000         0.666666687
     0.166666672         0.333333343         0.000000000
     0.166666672         0.333333343         0.333333343
     0.166666672         0.333333343         0.666666687
     0.166666672         0.666666687         0.000000000
     0.166666672         0.666666687         0.333333343
     0.166666672         0.666666687         0.666666687
     0.500000000         0.000000000         0.000000000
     0.500000000         0.000000000         0.333333343
     0.500000000         0.000000000         0.666666687
     0.500000000         0.333333343         0.000000000
     0.500000000         0.333333343         0.333333343
     0.500000000         0.333333343         0.666666687
     0.500000000         0.666666687         0.000000000
     0.500000000         0.666666687         0.333333343
     0.500000000         0.666666687         0.666666687
     0.833333313         0.000000000         0.000000000
     0.833333313         0.000000000         0.333333343
     0.833333313         0.000000000         0.666666687
     0.833333313         0.333333343         0.000000000
     0.833333313         0.333333343         0.333333343
     0.833333313         0.333333343         0.666666687
     0.833333313         0.666666687         0.000000000
     0.833333313         0.666666687         0.333333343
     0.833333313         0.666666687         0.666666687
     0.166666672         0.166666672         0.166666672
     0.166666672         0.166666672         0.500000000
     0.166666672         0.166666672         0.833333313
     0.166666672         0.500000000         0.166666672
     0.166666672         0.500000000         0.500000000
     0.166666672         0.500000000         0.833333313
     0.166666672         0.833333313         0.166666672
     0.166666672         0.833333313         0.500000000
     0.166666672         0.833333313         0.833333313
     0.500000000         0.166666672         0.166666672
     0.500000000         0.166666672         0.500000000
     0.500000000         0.166666672         0.833333313
     0.500000000         0.500000000         0.166666672
     0.500000000         0.500000000         0.500000000
     0.500000000         0.500000000         0.833333313
     0.500000000         0.833333313         0.166666672
     0.500000000         0.833333313         0.500000000
     0.500000000         0.833333313         0.833333313
     0.833333313         0.166666672         0.166666672
     0.833333313         0.166666672         0.500000000
     0.833333313         0.166666672         0.833333313
     0.833333313         0.500000000         0.166666672
     0.833333313         0.500000000         0.500000000
     0.833333313         0.500000000         0.833333313
     0.833333313         0.833333313         0.166666672
     0.833333313         0.833333313         0.500000000
     0.833333313         0.833333313         0.833333313
     0.000000000         0.000000000         0.166666672
     0.000000000         0.000000000         0.500000000
     0.000000000         0.000000000         0.833333313
     0.000000000         0.333333343         0.166666672
     0.000000000         0.333333343         0.500000000
     0.000000000         0.333333343         0.833333313
     0.000000000         0.666666687         0.166666672
     0.000000000         0.666666687         0.500000000
     0.000000000         0.666666687         0.833333313
     0.333333343         0.000000000         0.166666672
     0.333333343         0.000000000         0.500000000
     0.333333343         0.000000000         0.833333313
     0.333333343         0.333333343         0.166666672
     0.333333343         0.333333343         0.500000000
     0.333333343         0.333333343         0.833333313
     0.333333343         0.666666687         0.166666672
     0.333333343         0.666666687         0.500000000
     0.333333343         0.666666687         0.833333313
     0.666666687         0.000000000         0.166666672
     0.666666687         0.000000000         0.500000000
     0.666666687         0.000000000         0.833333313
     0.666666687         0.333333343         0.166666672
     0.666666687         0.333333343         0.500000000
     0.666666687         0.333333343         0.833333313
     0.666666687         0.666666687         0.166666672
     0.666666687         0.666666687         0.500000000
     0.666666687         0.666666687         0.833333313
     0.000000000         0.166666672         0.000000000
     0.000000000         0.166666672         0.333333343
     0.000000000         0.166666672         0.666666687
     0.000000000         0.500000000         0.000000000
     0.000000000         0.500000000         0.333333343
     0.000000000         0.500000000         0.666666687
     0.000000000         0.833333313         0.000000000
     0.000000000         0.833333313         0.333333343
     0.000000000         0.833333313         0.666666687
     0.333333343         0.166666672         0.000000000
     0.333333343         0.166666672         0.333333343
     0.333333343         0.166666672         0.666666687
     0.333333343         0.500000000         0.000000000
     0.333333343         0.500000000         0.333333343
     0.333333343         0.500000000         0.666666687
     0.333333343         0.833333313         0.000000000
     0.333333343         0.833333313         0.333333343
     0.333333343         0.833333313         0.666666687
     0.666666687         0.166666672         0.000000000
     0.666666687         0.166666672         0.333333343
     0.666666687         0.166666672         0.666666687
     0.666666687         0.500000000         0.000000000
     0.666666687         0.500000000         0.333333343
     0.666666687         0.500000000         0.666666687
     0.666666687         0.833333313         0.000000000
     0.666666687         0.833333313         0.333333343
     0.666666687         0.833333313         0.666666687
