New structure                           
   1.00000000000000     
     0.0000000000000000  -17.1805734624895479    0.0000000000000000
     0.0000000000000000   -8.5902867312447739  -14.8788130701007191
    30.0000000000000000    0.0000000000000000    0.0000000000000000
   Al  O
   252 2
Cartesian
   16.4439500000000       -12.9376400000000       -9.12275000000000     
   16.2822100000000       -14.3899900000000       -6.57075000000000     
   16.3373100000000       -15.7641800000000       -4.11331000000000     
   16.3367100000000       -17.1810410000000       -1.65347000000000     
   16.3318900000000       -18.6155600000000       -4.13111000000000     
   16.3367110000000       -20.0440000000000       -6.61227000000000     
   16.3431510000000       -18.6112700000000       -9.09717000000000     
   16.3515410000000       -17.1690800000000       -11.5657700000000     
   16.3431510000000       -15.7523000000000       -14.0490500000000     
   16.3271110000000       -18.6119000000000       -14.0524400000000     
   16.3271110000000       -21.4761100000000       -14.0524400000000     
   16.3515420000000       -22.9189300000000       -11.5657700000000     
   16.3431510000000       -21.4767400000000       -9.09717000000000     
   13.9885510000000       -20.0440000000000       -9.91752000000000     
   13.9873310000000       -18.6103500000000       -12.3978900000000     
   11.6967010000000       -20.0440000000000       -13.2256100000000     
   11.6911310000000       -21.4792800000000       -10.7430790000000     
   9.35289100000000       -22.9064400000000       -11.5729790000000     
   9.35383100000000       -21.4744510000000       -14.0514790000000     
   9.35110100000000       -24.3429010000000       -14.0538390000000     
   11.6911310000000       -22.9115700000000       -13.2238890000000     
   13.9873310000000       -21.4776500000000       -12.3978890000000     
   16.3271110000000       -20.0439990000000       -11.5719600000000     
   16.3373100000000       -17.2052900000000       -6.60938000000000     
   13.9794600000000       -15.7667000000000       -7.43984000000000     
   13.9853200000000       -17.1907600000000       -4.95372000000000     
   11.6883600000000       -18.6108700000000       -5.78884100000000     
   11.6867310000000       -17.1757700000000       -8.26882000000000     
   9.35110100000000       -18.6118200000000       -9.08855100000000     
   9.35289100000000       -17.1815690000000       -11.5729800000000     
   7.01515100000000       -18.6151490000000       -12.4006610000000     
   7.01658100000000       -20.0440000000000       -9.92592100000000     
   4.71038100000000       -21.4766300000000       -10.7481620000000     
   4.70238100000000       -20.0439990000000       -13.2256110000000     
   2.35502100000000       -21.4790590000000       -14.0541420000000     
   2.36762100000000       -22.9097800000000       -11.5710520000000     
   2.37218100000000       -24.3370590000000       -14.0507720000000     
   4.71038100000000       -22.9058490000000       -13.2236420000000     
   7.01515100000000       -21.4728490000000       -12.4006610000000     
   9.35383000000000       -20.0439990000000       -11.5738710000000     
   11.6911300000000       -18.6087180000000       -10.7430800000000     
   13.9984190000000       -17.1803180000000       -9.92307000000000     
   11.6980690000000       -15.7425090000000       -10.7421400000000     
   13.9984190000000       -15.7520780000000       -12.3968590000000     
   13.9794590000000       -12.8947280000000       -12.4142490000000     
   16.2822080000000       -11.4537170000000       -11.6565280000000     
   16.3373090000000       -10.0126070000000       -14.0753280000000     
   16.3373090000000       -12.8948170000000       -14.0753280000000     
   16.3567690000000       -14.3030770000000       -11.5800590000000     
   14.0103690000000       -14.3057680000000       -9.91263900000000     
   16.3567690000000       -15.7484470000000       -9.07659900000000     
   9.35383000000000       -18.6135480000000       -14.0514810000000     
   9.35110000000000       -15.7451080000000       -14.0538400000000     
   11.6867290000000       -14.3171780000000       -13.2200390000000     
   11.6997290000000       -12.8813380000000       -10.7392090000000     
   11.6997290000000       -10.0260880000000       -10.7392080000000     
   11.6867290000000       -8.59024800000000       -13.2200380000000     
   13.9984190000000       -7.15534800000000       -12.3968580000000     
   14.0103690000000       -8.60165800000000       -9.91263800000000     
   16.4439490000000       -9.96978800000000       -9.12274800000000     
   16.3567680000000       -7.15897800000000       -9.07659700000000     
   16.2822080000000       -8.51743900000000       -6.57074800000000     
   16.3567680000000       -10.0083500000000       -4.14135800000000     
   16.3515380000000       -11.4537210000000       -1.66647900000000     
   13.9984180000000       -12.8819610000000       -2.47808900000000     
   13.9885480000000       -14.3186120000000      -8.500000000000000E-004
   11.6878780000000       -15.7479910000000      -0.826101000000000     
   11.6867280000000       -14.3123000000000       -3.30915000000000     
   9.35137800000000       -15.7456100000000       -4.13580100000000     
   9.35928800000000       -14.3099690000000       -6.61695000000000     
   7.01747800000000       -15.7408190000000       -7.44076100000000     
   7.01267800000000       -14.3104680000000       -9.91535000000000     
   4.71907800000000       -15.7468680000000       -10.7446610000000     
   4.71726800000000       -14.3157080000000       -13.2254300000000     
   7.01747800000000       -12.8825780000000       -12.3913700000000     
   9.35928800000000       -11.4537180000000       -11.5641190000000     
   9.35137800000000       -10.0227970000000       -14.0479990000000     
   9.35137800000000       -12.8846270000000       -14.0480000000000     
   11.6863580000000       -11.4537180000000       -13.2258000000000     
   13.9794580000000       -10.0126980000000       -12.4142490000000     
   16.3567680000000       -8.60434800000000       -11.5800590000000     
   9.35110000000000       -21.4761790000000       -9.08855100000000     
   9.35517000000000       -20.0439990000000       -6.60957100000000     
   9.35816900000000       -18.6119800000000       -4.13318000000000     
   9.35516800000000       -17.1833700000000       -1.65482000000000     
   7.01823800000000       -15.7497210000000       -2.48123000000000     
   7.02107600000000       -12.8839210000000       -2.47949000000000     
   7.01267700000000       -11.4537210000000       -4.96730900000000     
   4.71093700000000       -12.8825610000000       -5.79213000000000     
   4.70694800000000       -11.4537210000000       -8.26601000000000     
   2.35477900000000       -12.8813910000000       -9.09028100000000     
   2.35465800000000       -14.3178720000000       -6.61239100000000     
   2.36886800000000       -15.7508720000000       -4.13240200000000     
   4.71726700000000       -14.3177110000000       -3.30774100000000     
   4.71037600000000       -12.8829420000000      -0.826220000000000     
   4.71706700000000       -15.7511420000000      -0.827921000000000     
   7.01657600000000       -14.3113310000000       3.360000000000000E-003
   9.35109700000000       -14.3204300000000       -1.65563900000000     
   9.35288600000000       -11.4537200000000       -1.65204900000000     
   11.6911250000000       -10.0214190000000      -0.831048000000000     
   13.9885440000000       -8.58881900000000      -8.470000000000000E-004
   13.9934840000000       -7.16160800000000       -2.47665700000000     
   13.9853140000000       -5.71666700000000       -4.95371600000000     
   13.9934840000000       -4.29393700000000       -7.44360600000000     
   11.6867240000000       -5.73165700000000       -8.26881600000000     
   11.6863550000000       -7.15840800000000       -5.78610700000000     
   9.35928500000000       -8.59745800000000       -6.61694700000000     
   9.35268400000000       -7.16559700000000       -9.09201700000000     
   7.01267400000000       -8.59695700000000       -9.91534700000000     
   7.02107400000000       -7.15754700000000       -12.3978570000000     
   4.71726400000000       -8.59171700000000       -13.2254270000000     
   4.71093500000000       -10.0256980000000       -10.7403570000000     
   2.35465500000000       -11.4537180000000       -11.5732470000000     
   2.36886500000000       -10.0224880000000       -14.0542570000000     
   2.36886500000000       -12.8849380000000       -14.0542570000000     
   2.37217600000000       -15.7509370000000       -14.0507670000000     
   2.36761600000000       -17.1782280000000       -11.5710480000000     
   2.37217700000000       -18.6120780000000       -9.09512800000000     
   4.71726600000000       -17.1796970000000       -8.26484700000000     
   7.01823700000000       -18.6114770000000       -7.43794700000000     
   4.71341700000000       -18.6116080000000       -5.78355700000000     
   7.01683600000000       -17.1808070000000       -4.95946700000000     
   4.71455600000000       -15.7460970000000       -5.78779700000000     
   7.01747600000000       -14.3119470000000       -4.96588700000000     
   9.35268500000000       -12.8824260000000       -4.13938600000000     
   11.6980640000000       -11.4537160000000       -3.31373600000000     
   9.35268400000000       -10.0249960000000       -4.13938600000000     
   11.6997240000000       -10.0256650000000       -5.79304600000000     
   14.0103640000000       -11.4537140000000       -4.97272600000000     
   13.9966740000000       -10.0158040000000       -7.43582500000000     
   11.6742350000000       -11.4537140000000       -8.26600600000000     
   9.36065600000000       -12.8851950000000       -9.09247600000000     
   9.36065400000000       -10.0222250000000       -9.09247600000000     
   7.01771400000000       -10.0253470000000       -7.44133600000000     
   7.01747300000000       -7.16660700000000       -7.44075500000000     
   7.01823100000000       -4.29594700000000       -7.43794500000000     
   7.01683100000000       -5.72661800000000       -4.95946500000000     
   4.71455200000000       -7.16132900000000       -5.78779600000000     
   4.71726300000000       -8.58972000000000       -3.30773600000000     
   4.71037300000000       -10.0245000000000      -0.826217000000000     
   7.01657200000000       -8.59609900000000       3.364000000000000E-003
   7.01823200000000       -7.15771800000000       -2.48122500000000     
   9.35137200000000       -7.16181600000000       -4.13579500000000     
   9.35816000000000       -4.29544600000000       -4.13317400000000     
   11.6849790000000       -2.86342400000000       -3.30639300000000     
   13.9863980000000       -1.43263300000000       -2.48033200000000     
   13.9853080000000       -2.86342400000000      -1.175200000000000E-002
   11.6883500000000       -4.29671500000000      -0.824043000000000     
   9.35516100000000       -5.72405700000000       -1.65481400000000     
   11.6878720000000       -7.15943500000000      -0.826094000000000     
   11.6867230000000       -8.59512400000000       -3.30914500000000     
   13.9984140000000       -10.0254630000000       -2.47808600000000     
   16.3431430000000       -8.59474200000000       -1.65179500000000     
   16.3367010000000       -5.72638200000000       -1.65346300000000     
   16.3318800000000       -4.29186100000000       -4.13110300000000     
   16.3373020000000       -7.14324100000000       -4.11330400000000     
   16.3373020000000       -5.70212900000000       -6.60937300000000     
   13.9794530000000       -7.14072100000000       -7.43983500000000     
   13.9794530000000       -8.58173200000000       -4.94392500000000     
   7.01771900000000       -12.8820810000000       -7.44133900000000     
   9.36065800000000       -11.4537200000000       -6.61306800000000     
   11.6911260000000       -12.8860100000000      -0.831048000000000     
   13.9873260000000       -11.4537200000000      -2.236000000000000E-003
   13.9934890000000       -18.6134890000000       -7.44361000000000     
   11.6878800000000       -20.0439990000000       -8.26701100000000     
   2.37467900000000       -14.3126280000000       -11.5728380000000     
   4.71093700000000       -12.8817350000000       -10.7403590000000     
   7.01771600000000       -11.4537120000000       -9.91534000000000     
   7.01747200000000       -10.0248420000000       -12.3913700000000     
   9.35268000000000       -8.59429800000000       -11.5666210000000     
   11.6980590000000       -7.16490500000000       -10.7421420000000     
   13.9984070000000       -5.72709200000000       -9.92307300000000     
   2.37468200000000       -15.7469680000000       -9.08848800000000     
   4.71094100000000       -14.3105750000000       -8.26552900000000     
   4.71455400000000       -11.4537150000000       -13.2224190000000     
   2.36887600000000       -17.1820990000000       -6.61135800000000     
   2.36664000000000       -20.0439990000000       -6.61328900000000     
   2.37219000000000       -21.4759180000000       -9.09512900000000     
   4.71707900000000       -20.0439950000000       -8.26337000000000     
   4.71038500000000       -18.6113650000000       -10.7481600000000     
   7.02108400000000       -17.1800820000000       -9.92067100000000     
   9.35269300000000       -15.7418190000000       -9.09202200000000     
   11.6997310000000       -14.3093660000000       -8.26576300000000     
   13.9966800000000       -12.8916030000000       -7.43583400000000     
   11.6997310000000       -12.8817470000000       -5.79305200000000     
   11.6863650000000       -15.7490170000000       -5.78611300000000     
   13.9794630000000       -14.3256740000000       -4.94393400000000     
   16.3567720000000       -12.8990710000000       -4.14136500000000     
   16.3431560000000       -14.3126620000000       -1.65180500000000     
   13.9934970000000       -15.7458040000000       -2.47666400000000     
   11.6883680000000       -17.1775670000000       -3.30632300000000     
   2.35908900000000       -18.6111690000000       -4.13364800000000     
   2.36663800000000       -17.1801590000000       -1.65295800000000     
   4.71342700000000       -17.1825260000000       -3.30830900000000     
   7.02108100000000       -15.7498810000000       -12.3978600000000     
   9.35269000000000       -14.3131080000000       -11.5666210000000     
   2.35502700000000       -20.0439980000000       -11.5685390000000     
   2.35502300000000       -18.6089370000000       -14.0541380000000     
   4.71038200000000       -17.1821440000000       -13.2236390000000     
   2.37218000000000       -14.3148700000000       -1.65211700000000     
   2.36761000000000       -11.4537300000000       -1.65590700000000     
   2.37466100000000       -10.0193890000000       -4.13669600000000     
   2.35463300000000       -8.58956900000000       -6.61238600000000     
   2.37464400000000       -7.16046800000000       -9.08848600000000     
   4.71723000000000       -5.72773000000000       -8.26484900000000     
   4.71904100000000       -7.16055900000000       -10.7446590000000     
   7.02103700000000       -5.72733100000000       -9.92067300000000     
   2.37467100000000       -12.8880590000000       -4.13669700000000     
   4.71906800000000       -11.4537210000000       -3.30870000000000     
   7.02106400000000       -10.0235030000000       -2.47949400000000     
   9.35108000000000       -8.58698500000000       -1.65564700000000     
   4.71091900000000       -10.0248710000000       -5.79213000000000     
   7.01745500000000       -8.59547300000000       -4.96589400000000     
   2.35476200000000       -11.4537290000000       -6.61746700000000     
   2.35475400000000       -10.0260480000000       -9.09027600000000     
   4.71091000000000       -8.59685100000000       -8.26553000000000     
   2.37464500000000       -8.59480800000000       -11.5728360000000     
   7.01514200000000       -11.4537140000000       3.297000000000000E-003
   9.35137200000000       -17.1765110000000       -6.61421600000000     
   9.35137800000000       -5.73091300000000       -6.61422000000000     
   11.6883630000000       -4.29657800000000       -5.78884500000000     
   13.9864190000000       -2.86344800000000       -4.95853500000000     
   13.9869140000000       -4.29484100000000       -2.48069300000000     
   16.3324000000000       -2.86405500000000       -1.65734100000000     
   11.6911300000000       -17.1764280000000       -13.2238900000000     
   11.6997230000000       -8.59804600000000       -8.26574900000000     
   11.6883570000000       -5.72985200000000       -3.30631900000000     
   13.9966870000000       -11.4537240000000       -9.92636000000000     
   13.9934870000000       -5.73110800000000       1.072000000000000E-003
   16.4439480000000       -11.4537000000000       -6.55252500000000     
   2.36883300000000       -5.72533900000000       -6.61135500000000     
   2.35904200000000       -4.29626900000000       -4.13364500000000     
   4.70753900000000       -2.86343200000000       -3.30639900000000     
   7.01859600000000       -1.43468400000000       -2.48152200000000     
   7.01680400000000       -2.86342400000000      -2.720000000000000E-004
   4.71338800000000       -4.29251200000000      -0.827339000000000     
   2.36660100000000       -5.72727900000000       -1.65295500000000     
   4.71704700000000       -7.15629200000000      -0.827920000000000     
   7.01821400000000       -5.72518400000000      -3.300000000000000E-005
   7.01860500000000       -4.29216400000000       -2.48152200000000     
   9.35813200000000       -2.86341600000000       -1.65284600000000     
   11.6883180000000       -1.43011800000000      -0.824059000000000     
   13.9934440000000       4.270000000000000E-003  1.048000000000000E-003
   2.36884200000000       -7.15656900000000       -4.13239600000000     
   4.71338800000000       -5.72490200000000       -3.30830900000000     
   4.71338000000000       -4.29582100000000       -5.78355800000000     
   7.01859700000000       -2.86342400000000       -4.95617200000000     
   2.37216000000000       -8.59258000000000       -1.65211600000000     
   2.35904200000000       -2.86343900000000       -1.65190500000000     
   4.71337900000000       -1.43434200000000      -0.827339000000000     
   7.01819600000000      -1.665000000000000E-003 -3.200000000000000E-005
   16.3431520000000       -24.3357000000000       -14.0490500000000     
     14.5   -11.453720    -8.266010  
     15.5   -11.214085    -7.878753  
