Al  O                                   
    1.000000000000000     
    14.4150840000000002    0.0000000000000000    0.0000000000000000
    -7.2075420000000001   12.4838279999999990    0.0000000000000000
     0.0000000000000000    0.0000000000000000   31.1162540000000014
   Al   O 
   108   164
Direct
 -0.0001227021874717 -0.0000701638392532  0.0635665638382910
  0.1108707024493977  0.2220683807189927  0.0325317754265580
  0.1107860105004590  0.2220873051107038  0.1334643901204497
  0.2221620578802147  0.1110913203157804  0.0721818107627866
  0.2217175822378423  0.1110264063491953  0.2017635996901934
 -0.0004187167307273 -0.0002314523491165  0.1480142267116577
 -0.0002899839259035  0.0002066334466839  0.2734708303096046
  0.1100923684980474  0.2220032511991937  0.2188539886832238
  0.1108412655254857  0.2223527084120457  0.3484940549435838
  0.2217687577973035  0.1110189103649115  0.2873699086585940
  0.2221034272496866  0.1120528466552034  0.3890065795354187
 -0.0005710845775692 -0.0000649126748821  0.3583111439167584
 -0.0001049293518208  0.3333001965940568  0.0634870452633889
  0.1110215481409478  0.5555166757369667  0.0325826360264549
  0.1107913575109402  0.5555176534873498  0.1336579932225050
  0.2221184333243173  0.4444100667726423  0.0721392699138261
  0.2215712678885134  0.4445177846922908  0.2015535952442121
 -0.0006476629300406  0.3331542993708528  0.1479804316704577
 -0.0011450541371913  0.3331456404917853  0.2735043007502941
  0.1098508545650856  0.5555420642960250  0.2191863834913016
  0.1105629669823997  0.5555881926954751  0.3494499001698353
  0.2204739205689467  0.4438034873112657  0.2869767153457125
  0.2224050586448864  0.4439758047659171  0.3892017820376862
 -0.0006651900415231  0.3331223550843239  0.3582699791879563
 -0.0000430939203122  0.6665943759347496  0.0636605462457094
  0.1109479871867858  0.8888173214634587  0.0326040851345908
  0.1109037844590138  0.8888865448337685  0.1337029016322436
  0.2220853045907359  0.7777961707477620  0.0722793911878832
  0.2218522032529472  0.7777957925568030  0.2022247129841669
 -0.0004276192445746  0.6665835456090505  0.1481738929015184
 -0.0006398397476355  0.6665103166347757  0.2741978428079288
  0.1105502310198577  0.8885999689671770  0.2193135829983109
  0.1108061861343738  0.8889829457721494  0.3497227554376919
  0.2213510398754543  0.7778443609899475  0.2880285930816193
  0.2222357136407380  0.7783030571361507  0.3897240274165716
 -0.0009075194286627  0.6665124751930751  0.3590218665452421
  0.3332683457350128  0.0000767675066715  0.0634268763328897
  0.4446118058714290  0.2223129027613605  0.0324273534745497
  0.4442602600157166  0.2221976500171057  0.1335103529969257
  0.5555788685601615  0.1111583346359935  0.0722659732329993
  0.5551234238678635  0.1110874376565592  0.2022608430726779
  0.3330233916672540 -0.0001495383661405  0.1479332900012610
  0.3327717836254701 -0.0000267621084140  0.2732702514437695
  0.4441683427023834  0.2219418162321576  0.2189588666012070
  0.4447099708456281  0.2234113695485801  0.3482300226690572
  0.5552931064186311  0.1112014055462152  0.2880198621679197
  0.5546826053885797  0.1114589072476587  0.3897899047318515
  0.3329853893428302  0.0006472622493446  0.3578558990827432
  0.3333705295454359  0.3333934056722239  0.0632041868264796
  0.4445123558868448  0.5557563398407457  0.0323942472478078
  0.4442512455291587  0.5555766698367873  0.1332278346346688
  0.5555541198196717  0.4443988834788995  0.0722520597497916
  0.5549584437326492  0.4442792146700710  0.2021555762057762
  0.3329757620828916  0.3331734389077024  0.1476527115132959
  0.3325060407575139  0.3334626374690848  0.2719185231621896
  0.4438211341673764  0.5552644633885556  0.2184555559133022
  0.4419568013126076  0.5548048237612720  0.3457871695871176
  0.5552731494357229  0.4436483122618121  0.2882757476628314
  0.5537789764140792  0.4389072755150450  0.4019182186590170
  0.3346095807060144  0.3345103459189195  0.3560322557065387
  0.3333243979065354  0.6668135601790043  0.0632798965924369
  0.4443240071621191  0.8890324054862971  0.0325083682140510
  0.4443239028315359  0.8890132728639315  0.1335500270204115
  0.5555324905050122  0.7779357307445909  0.0721979569354215
  0.5552663999889713  0.7777223303969529  0.2016434815137031
  0.3327983479357159  0.6667757684157533  0.1477272977318263
  0.3325681454329065  0.6664084973568742  0.2723832000598133
  0.4440604601779436  0.8891110101063976  0.2190303999457339
  0.4437525060537277  0.8890135421246268  0.3490385862953239
  0.5551982875050692  0.7782647586344231  0.2872672371279471
  0.5543141971897299  0.7773829223060514  0.3884097135199307
  0.3327381227415814  0.6667847850557044  0.3569127836936233
  0.6665986710554880 -0.0000448268519441  0.0635103021936229
  0.7778145442599724  0.2222641901437226  0.0324931499508062
  0.7775775113917959  0.2222483839149770  0.1338078039948193
  0.8887198701385435  0.1110125984189259  0.0723234609576454
  0.8884099484200888  0.1111746245940673  0.2023739063531050
  0.6665063362365340  0.0002613388014505  0.1479715568281407
  0.6661143238153272  0.0001568566683104  0.2737815278167368
  0.7772307390412412  0.2224492643097604  0.2194201548305656
  0.7770184974897529  0.2223361126375693  0.3500073356459920
  0.8880018299520114  0.1109292229095155  0.2881761452435298
  0.8884434845071800  0.1108065868971712  0.3897821665980483
  0.6660682320083079 -0.0001698891402894  0.3586189388233191
  0.6667277086463120  0.3333453226197545  0.0635450833660346
  0.7778593255098962  0.5554668307651942  0.0326110640638596
  0.7775434278752072  0.5555528554064133  0.1337739663890243
  0.8887886701840901  0.4444240476830399  0.0724440557731372
  0.8885000269509348  0.4443641692933471  0.2026933412851216
  0.6665368214856919  0.3333659625569516  0.1480799312092642
  0.6655322140937571  0.3326629908398958  0.2736687400736874
  0.7775161330940232  0.5553233198376779  0.2193323932024442
  0.7760033501085152  0.5545935045352364  0.3507543323217515
  0.8879732406122494  0.4444268403037802  0.2886042435957184
  0.8882862328872337  0.4439990460096248  0.3904719913367292
  0.6653388626400367  0.3336587034996883  0.3586016019393644
  0.6666486944853747  0.6666112186880928  0.0634182311148108
  0.7777398639630509  0.8887433986402939  0.0325296193410342
  0.7777037578921013  0.8890268916331381  0.1336623671094444
  0.8888615813639487  0.7776745328924456  0.0723916303074670
  0.8885433716381901  0.7777144900298235  0.2024610742146031
  0.6666863656493373  0.6667315341281020  0.1479227672790577
  0.6657079014285290  0.6665651942155808  0.2724912002376104
  0.7777943035655608  0.8893191637170427  0.2191731942729834
  0.7774039228744892  0.8888854164069439  0.3494284373840278
  0.8885944476897574  0.7777800324578319  0.2883701332574458
  0.8887371442301792  0.7778586178500533  0.3904005744389554
  0.6683403995581666  0.6677664248538554  0.3565846215587945
  0.1035070002488624 -0.0003007955224186  0.1049518365221650
  0.2272016685189818  0.0084423243043958  0.0352373437790884
 -0.0001181140281611  0.1037976301507543  0.1049327659147805
  0.2292455815545374  0.2296402621188469  0.1047354841777615
  0.3248787185027183  0.2187465762105547  0.0351383864508788
  0.1143067560705509  0.1058148673841218  0.0352797696079774
  0.3234851766882755  0.1102697687721208  0.2452975744663738
  0.1101655672303995  0.1197464522735933  0.1752816893080730
  0.2217220610342908  0.2128930930601319  0.2448662121937707
  0.1192549848429879  0.0090113152101701  0.2456033066988711
  0.2126989179924302  0.3240341204739953  0.1750619853693720
  0.0085347635836211  0.2223472561708921  0.1755056670825268
  0.2196626921825996  0.2283658564992462  0.3843431966744771
 -0.0010248309106194  0.2293301277027302  0.3166340801519297
  0.1062976444029654  0.3248439312969253  0.3859616250831884
  0.0085299230572877  0.1150295778595635  0.3863979748765652
  0.1028827658468894  0.1032120689500543  0.3160790153353457
  0.2291418657771865  0.0004180613319645  0.3164775538040566
  0.1033886728605028  0.3330014607910450  0.1048412131433948
  0.2271331143485558  0.3417416301235776  0.0351025493399957
 -0.0001025575847743  0.4372274079439984  0.1050155318572386
  0.2291560905221157  0.5630370963272139  0.1048048937083077
  0.3248179618387376  0.5522210751417435  0.0351155127275384
  0.1143917221873032  0.4393118649648859  0.0352766084817458
  0.3226971798281195  0.4437459790181302  0.2444412177962098
  0.1100018509459137  0.4531840245394772  0.1752205684913401
  0.2215463966109136  0.5467243459376887  0.2450690542194665
  0.1184443916654393  0.3423218555192842  0.2453252105577934
  0.2127612115028784  0.6575422958762229  0.1753950705826622
  0.0086750878547055  0.5558752380478216  0.1758254410294291
  0.2193519765969019  0.5604242234275816  0.3854103698451670
 -0.0009693170323768  0.5628230924874394  0.3173802950967674
  0.1060334741755245  0.6583154309317107  0.3869419165986415
  0.0081283440097387  0.4477179784749112  0.3868214679456625
  0.1028073805488645  0.4366594150610704  0.3163569178326641
  0.2288338997245100  0.3331521909092319  0.3149997000697262
  0.1034757908998477  0.6664340222779896  0.1050371958188911
  0.2271550919179612  0.6752244792984381  0.0352151956100073
 -0.0000075146746505  0.7704917961450907  0.1051541350345663
  0.2291452747715609  0.8962423552276996  0.1049455618299795
  0.3246484451840646  0.8854782545796490  0.0352686551269682
  0.1142677820618439  0.7725714093174819  0.0353847894469799
  0.3233995780431273  0.7774463967396168  0.2453791737985802
  0.1103643567997393  0.7865406933262938  0.1757386774566934
  0.2218965372097597  0.8799068548694391  0.2458394675619111
  0.1190115017419468  0.6757573663113998  0.2461336497105242
  0.2129621832588385  0.9906590951157308  0.1753631443744909
  0.0087485686744115  0.8889239875431523  0.1757518550448147
  0.2192923889014685  0.8950118252672844  0.3866544436183847
 -0.0006703749626919  0.8961714065323628  0.3170670567316490
  0.1058765421663623  0.9921044015066530  0.3866274123324888
  0.0084902994551936  0.7815541971622603  0.3874756326618148
  0.1032124475590401  0.7703340411734444  0.3171906417662149
  0.2288833372731417  0.6668919301233585  0.3163454340379611
  0.4369065904443091 -0.0002046554015094  0.1048934474496485
  0.5606287576617356  0.0085894466743162  0.0352605995974928
  0.3334306390319786  0.1037040190098035  0.1048437817662981
  0.5627357474515678  0.2296366452827529  0.1049479551426160
  0.6581931419537402  0.2188395633535057  0.0353208721053002
  0.4478958634959718  0.1060431436831292  0.0352173917823031
  0.6571507661539207  0.1108651259867164  0.2461064648049123
  0.4437980743985221  0.1198980403952048  0.1753905557967417
  0.5557492523348773  0.2129737948555052  0.2455175797950415
  0.4528107864689846  0.0089626986689346  0.2457263175554239
  0.5466181319247718  0.3242379003471579  0.1753847227074860
  0.3420315873669278  0.2222842616365608  0.1751492093654494
  0.5509429148596475  0.2275791395374920  0.3868369784889825
  0.3334027073924614  0.2302437137428487  0.3148624324534018
  0.4408436543528987  0.3267616001864635  0.3834571126124175
  0.3416245169952596  0.1158941064222995  0.3854921931476948
  0.4367247315004095  0.1037225806977126  0.3162621765857324
  0.5625813195333321  0.0001351242198320  0.3167633603928617
  0.4368188021431941  0.3329592797440730  0.1047306031825486
  0.5608685422092409  0.3419462398258825  0.0352536303339523
  0.3334105051202808  0.4372319683497828  0.1046881672632576
  0.5627745528087056  0.5630371483391614  0.1047946962380834
  0.6582938794093851  0.5521400762247889  0.0352498089544837
  0.4480282045154990  0.4395526316542444  0.0351465847940275
  0.6576129259856747  0.4443225412626460  0.2460896850531472
  0.4436665979911561  0.4531858266897172  0.1750888897512200
  0.5556987208482973  0.5466974311840443  0.2449733242718926
  0.4530250843527457  0.3424459542374405  0.2450040169188929
  0.5464586410983459  0.6576557528919964  0.1750637539524267
  0.3420426398979758  0.5560854552154397  0.1750180571245741
  0.5518413649926335  0.5560870271760625  0.3829735717634519
  0.3321505585891461  0.5633122443966685  0.3144064659211404
  0.4396758789081002  0.6567877797654725  0.3836876480568930
  0.3421330034832008  0.4487297088083325  0.3838671722073363
  0.4356232838879861  0.4376346184437592  0.3142281875014471
  0.5633228157917930  0.3320844515585340  0.3154349512243617
  0.4368580826247114  0.6665694422788486  0.1046938611687549
  0.5607528712899963  0.6753465299407784  0.0352012059370390
  0.3333981616199393  0.7706122825168353  0.1048575028989896
  0.5627007053919078  0.8963941451256003  0.1049058731223877
  0.6582174814956407  0.8855828606774135  0.0352512785779002
  0.4478569783544010  0.7728931774348756  0.0351411450325054
  0.6572710881114270  0.7778964218885072  0.2452687725585440
  0.4438897534748026  0.7867702729601569  0.1752954815336356
  0.5559072154527989  0.8803987799659340  0.2455604245257250
  0.4530883978020041  0.6762143050846880  0.2448902320601387
  0.5464930286507522  0.9909892858744979  0.1755230980685173
  0.3421121415565339  0.8891909219005150  0.1754476178948268
  0.5510537948652170  0.8936138966865615  0.3865219698283366
  0.3324331965593013  0.8961900974231866  0.3164935629109611
  0.4388250401389421  0.9915797810675093  0.3861110869557591
  0.3415409751481622  0.7804932604766240  0.3861213659345184
  0.4363361310773075  0.7707259060372582  0.3156485512502084
  0.5625114481558117  0.6661816169007718  0.3151124255057258
  0.7703304350675985 -0.0000217527959783  0.1050311896661979
  0.8939153381096926  0.0084420322954111  0.0353231936570136
  0.6668409370207335  0.1038602793767704  0.1050098522990121
  0.8959440452444245  0.2297612002483862  0.1050620078005100
  0.9912482037841838  0.2187308443352471  0.0353058583307304
  0.7811333010153881  0.1060093216171580  0.0352962266038830
  0.9900025630237972  0.1106593312235495  0.2457990147648620
  0.7770744996300259  0.1199397260187820  0.1757132945660622
  0.8883361364447001  0.2131553973059022  0.2460211932822498
  0.7859706477377332  0.0090722139423861  0.2461296612806329
  0.8796641558120658  0.3240807911628195  0.1758104430569352
  0.6756048130466898  0.2225078941163708  0.1756472044467445
  0.8851059080521732  0.2273394307911452  0.3869137509844653
  0.6658673101419783  0.2291313930413743  0.3172637782152516
  0.7716582483195181  0.3247724190061959  0.3872754732422976
  0.6741609286375070  0.1140906370134464  0.3871429432208531
  0.7697337841345780  0.1033105671368129  0.3172117892612940
  0.8957261607714029  0.0002923299150575  0.3170010368416409
  0.7701501883178375  0.3330505694286974  0.1050844201970354
  0.8939396997982529  0.3419064040465047  0.0353207476177484
  0.6669590730420144  0.4372917394441184  0.1049502113860480
  0.8960851038827730  0.5631594903850619  0.1051541188129844
  0.9913719511545995  0.5520726836251006  0.0353937763327084
  0.7813389425269165  0.4392999112270727  0.0353735039423519
  0.9897689768849466  0.4439961738620971  0.2460190779424350
  0.7774020766065574  0.4532335212397883  0.1758055480931800
  0.8885253761508907  0.5467207816136703  0.2466189330138095
  0.7859410327644751  0.3425097749678081  0.2464048952560475
  0.8798362350731133  0.6575127969587435  0.1759295564743478
  0.6756314093230888  0.5557974553889461  0.1754765998279382
  0.8847948559459808  0.5605636995172411  0.3878834807342724
  0.6657876064860602  0.5631450198951108  0.3166473600497478
  0.7717129171238089  0.6586044294395630  0.3869534189852381
  0.6719982863682912  0.4469375945168592  0.3870415225249618
  0.7700353146871532  0.4372868823465322  0.3176824932694702
  0.8955167956132934  0.3332682529438404  0.3170664077069780
  0.7702615649399817  0.6665733152167869  0.1050333454062656
  0.8940246956925825  0.6751002364005482  0.0354095698840694
  0.6670640078931971  0.7707751552217861  0.1048847188151998
  0.8960655067700966  0.8963570757032904  0.1050696410407067
  0.9912697447704943  0.8853203526056386  0.0353895455824704
  0.7812923211631427  0.7726052840417071  0.0352987261116329
  0.9902611698407539  0.7773028440936468  0.2463476167211396
  0.7773527473703954  0.7866236321475162  0.1756372211961889
  0.8889374081256031  0.8801251291669120  0.2459870988378806
  0.7863431521503558  0.6757289317426031  0.2459364821583882
  0.8796990033214258  0.9908232280221020  0.1757245073619339
  0.6756805929566825  0.8893845004118121  0.1754375309923577
  0.8849414860339873  0.8940576849292935  0.3868356876614844
  0.6654598398415376  0.8956448767464816  0.3168518413492037
  0.7718617647630442  0.9907304013708732  0.3870068076104087
  0.6733231413320253  0.7790308288264662  0.3857205851904602
  0.7701252079975601  0.7706550243712940  0.3163951477310297
  0.8955547475806455  0.6669983360013829  0.3177325794099853
  0.5168504199683366  0.4645430288253089  0.4581230634470714
  0.5559501209305509  0.5674937736525786  0.4492807150406211
 
  0.00000000E+00  0.00000000E+00  0.00000000E+00
  0.00000000E+00  0.00000000E+00  0.00000000E+00
  0.00000000E+00  0.00000000E+00  0.00000000E+00
  0.00000000E+00  0.00000000E+00  0.00000000E+00
  0.00000000E+00  0.00000000E+00  0.00000000E+00
  0.00000000E+00  0.00000000E+00  0.00000000E+00
  0.00000000E+00  0.00000000E+00  0.00000000E+00
  0.00000000E+00  0.00000000E+00  0.00000000E+00
  0.00000000E+00  0.00000000E+00  0.00000000E+00
  0.00000000E+00  0.00000000E+00  0.00000000E+00
  0.00000000E+00  0.00000000E+00  0.00000000E+00
  0.00000000E+00  0.00000000E+00  0.00000000E+00
  0.00000000E+00  0.00000000E+00  0.00000000E+00
  0.00000000E+00  0.00000000E+00  0.00000000E+00
  0.00000000E+00  0.00000000E+00  0.00000000E+00
  0.00000000E+00  0.00000000E+00  0.00000000E+00
  0.00000000E+00  0.00000000E+00  0.00000000E+00
  0.00000000E+00  0.00000000E+00  0.00000000E+00
  0.00000000E+00  0.00000000E+00  0.00000000E+00
  0.00000000E+00  0.00000000E+00  0.00000000E+00
  0.00000000E+00  0.00000000E+00  0.00000000E+00
  0.00000000E+00  0.00000000E+00  0.00000000E+00
  0.00000000E+00  0.00000000E+00  0.00000000E+00
  0.00000000E+00  0.00000000E+00  0.00000000E+00
  0.00000000E+00  0.00000000E+00  0.00000000E+00
  0.00000000E+00  0.00000000E+00  0.00000000E+00
  0.00000000E+00  0.00000000E+00  0.00000000E+00
  0.00000000E+00  0.00000000E+00  0.00000000E+00
  0.00000000E+00  0.00000000E+00  0.00000000E+00
  0.00000000E+00  0.00000000E+00  0.00000000E+00
  0.00000000E+00  0.00000000E+00  0.00000000E+00
  0.00000000E+00  0.00000000E+00  0.00000000E+00
  0.00000000E+00  0.00000000E+00  0.00000000E+00
  0.00000000E+00  0.00000000E+00  0.00000000E+00
  0.00000000E+00  0.00000000E+00  0.00000000E+00
  0.00000000E+00  0.00000000E+00  0.00000000E+00
  0.00000000E+00  0.00000000E+00  0.00000000E+00
  0.00000000E+00  0.00000000E+00  0.00000000E+00
  0.00000000E+00  0.00000000E+00  0.00000000E+00
  0.00000000E+00  0.00000000E+00  0.00000000E+00
  0.00000000E+00  0.00000000E+00  0.00000000E+00
  0.00000000E+00  0.00000000E+00  0.00000000E+00
  0.00000000E+00  0.00000000E+00  0.00000000E+00
  0.00000000E+00  0.00000000E+00  0.00000000E+00
  0.00000000E+00  0.00000000E+00  0.00000000E+00
  0.00000000E+00  0.00000000E+00  0.00000000E+00
  0.00000000E+00  0.00000000E+00  0.00000000E+00
  0.00000000E+00  0.00000000E+00  0.00000000E+00
  0.00000000E+00  0.00000000E+00  0.00000000E+00
  0.00000000E+00  0.00000000E+00  0.00000000E+00
  0.00000000E+00  0.00000000E+00  0.00000000E+00
  0.00000000E+00  0.00000000E+00  0.00000000E+00
  0.00000000E+00  0.00000000E+00  0.00000000E+00
  0.00000000E+00  0.00000000E+00  0.00000000E+00
  0.00000000E+00  0.00000000E+00  0.00000000E+00
  0.00000000E+00  0.00000000E+00  0.00000000E+00
  0.00000000E+00  0.00000000E+00  0.00000000E+00
  0.00000000E+00  0.00000000E+00  0.00000000E+00
  0.00000000E+00  0.00000000E+00  0.00000000E+00
  0.00000000E+00  0.00000000E+00  0.00000000E+00
  0.00000000E+00  0.00000000E+00  0.00000000E+00
  0.00000000E+00  0.00000000E+00  0.00000000E+00
  0.00000000E+00  0.00000000E+00  0.00000000E+00
  0.00000000E+00  0.00000000E+00  0.00000000E+00
  0.00000000E+00  0.00000000E+00  0.00000000E+00
  0.00000000E+00  0.00000000E+00  0.00000000E+00
  0.00000000E+00  0.00000000E+00  0.00000000E+00
  0.00000000E+00  0.00000000E+00  0.00000000E+00
  0.00000000E+00  0.00000000E+00  0.00000000E+00
  0.00000000E+00  0.00000000E+00  0.00000000E+00
  0.00000000E+00  0.00000000E+00  0.00000000E+00
  0.00000000E+00  0.00000000E+00  0.00000000E+00
  0.00000000E+00  0.00000000E+00  0.00000000E+00
  0.00000000E+00  0.00000000E+00  0.00000000E+00
  0.00000000E+00  0.00000000E+00  0.00000000E+00
  0.00000000E+00  0.00000000E+00  0.00000000E+00
  0.00000000E+00  0.00000000E+00  0.00000000E+00
  0.00000000E+00  0.00000000E+00  0.00000000E+00
  0.00000000E+00  0.00000000E+00  0.00000000E+00
  0.00000000E+00  0.00000000E+00  0.00000000E+00
  0.00000000E+00  0.00000000E+00  0.00000000E+00
  0.00000000E+00  0.00000000E+00  0.00000000E+00
  0.00000000E+00  0.00000000E+00  0.00000000E+00
  0.00000000E+00  0.00000000E+00  0.00000000E+00
  0.00000000E+00  0.00000000E+00  0.00000000E+00
  0.00000000E+00  0.00000000E+00  0.00000000E+00
  0.00000000E+00  0.00000000E+00  0.00000000E+00
  0.00000000E+00  0.00000000E+00  0.00000000E+00
  0.00000000E+00  0.00000000E+00  0.00000000E+00
  0.00000000E+00  0.00000000E+00  0.00000000E+00
  0.00000000E+00  0.00000000E+00  0.00000000E+00
  0.00000000E+00  0.00000000E+00  0.00000000E+00
  0.00000000E+00  0.00000000E+00  0.00000000E+00
  0.00000000E+00  0.00000000E+00  0.00000000E+00
  0.00000000E+00  0.00000000E+00  0.00000000E+00
  0.00000000E+00  0.00000000E+00  0.00000000E+00
  0.00000000E+00  0.00000000E+00  0.00000000E+00
  0.00000000E+00  0.00000000E+00  0.00000000E+00
  0.00000000E+00  0.00000000E+00  0.00000000E+00
  0.00000000E+00  0.00000000E+00  0.00000000E+00
  0.00000000E+00  0.00000000E+00  0.00000000E+00
  0.00000000E+00  0.00000000E+00  0.00000000E+00
  0.00000000E+00  0.00000000E+00  0.00000000E+00
  0.00000000E+00  0.00000000E+00  0.00000000E+00
  0.00000000E+00  0.00000000E+00  0.00000000E+00
  0.00000000E+00  0.00000000E+00  0.00000000E+00
  0.00000000E+00  0.00000000E+00  0.00000000E+00
  0.00000000E+00  0.00000000E+00  0.00000000E+00
  0.00000000E+00  0.00000000E+00  0.00000000E+00
  0.00000000E+00  0.00000000E+00  0.00000000E+00
  0.00000000E+00  0.00000000E+00  0.00000000E+00
  0.00000000E+00  0.00000000E+00  0.00000000E+00
  0.00000000E+00  0.00000000E+00  0.00000000E+00
  0.00000000E+00  0.00000000E+00  0.00000000E+00
  0.00000000E+00  0.00000000E+00  0.00000000E+00
  0.00000000E+00  0.00000000E+00  0.00000000E+00
  0.00000000E+00  0.00000000E+00  0.00000000E+00
  0.00000000E+00  0.00000000E+00  0.00000000E+00
  0.00000000E+00  0.00000000E+00  0.00000000E+00
  0.00000000E+00  0.00000000E+00  0.00000000E+00
  0.00000000E+00  0.00000000E+00  0.00000000E+00
  0.00000000E+00  0.00000000E+00  0.00000000E+00
  0.00000000E+00  0.00000000E+00  0.00000000E+00
  0.00000000E+00  0.00000000E+00  0.00000000E+00
  0.00000000E+00  0.00000000E+00  0.00000000E+00
  0.00000000E+00  0.00000000E+00  0.00000000E+00
  0.00000000E+00  0.00000000E+00  0.00000000E+00
  0.00000000E+00  0.00000000E+00  0.00000000E+00
  0.00000000E+00  0.00000000E+00  0.00000000E+00
  0.00000000E+00  0.00000000E+00  0.00000000E+00
  0.00000000E+00  0.00000000E+00  0.00000000E+00
  0.00000000E+00  0.00000000E+00  0.00000000E+00
  0.00000000E+00  0.00000000E+00  0.00000000E+00
  0.00000000E+00  0.00000000E+00  0.00000000E+00
  0.00000000E+00  0.00000000E+00  0.00000000E+00
  0.00000000E+00  0.00000000E+00  0.00000000E+00
  0.00000000E+00  0.00000000E+00  0.00000000E+00
  0.00000000E+00  0.00000000E+00  0.00000000E+00
  0.00000000E+00  0.00000000E+00  0.00000000E+00
  0.00000000E+00  0.00000000E+00  0.00000000E+00
  0.00000000E+00  0.00000000E+00  0.00000000E+00
  0.00000000E+00  0.00000000E+00  0.00000000E+00
  0.00000000E+00  0.00000000E+00  0.00000000E+00
  0.00000000E+00  0.00000000E+00  0.00000000E+00
  0.00000000E+00  0.00000000E+00  0.00000000E+00
  0.00000000E+00  0.00000000E+00  0.00000000E+00
  0.00000000E+00  0.00000000E+00  0.00000000E+00
  0.00000000E+00  0.00000000E+00  0.00000000E+00
  0.00000000E+00  0.00000000E+00  0.00000000E+00
  0.00000000E+00  0.00000000E+00  0.00000000E+00
  0.00000000E+00  0.00000000E+00  0.00000000E+00
  0.00000000E+00  0.00000000E+00  0.00000000E+00
  0.00000000E+00  0.00000000E+00  0.00000000E+00
  0.00000000E+00  0.00000000E+00  0.00000000E+00
  0.00000000E+00  0.00000000E+00  0.00000000E+00
  0.00000000E+00  0.00000000E+00  0.00000000E+00
  0.00000000E+00  0.00000000E+00  0.00000000E+00
  0.00000000E+00  0.00000000E+00  0.00000000E+00
  0.00000000E+00  0.00000000E+00  0.00000000E+00
  0.00000000E+00  0.00000000E+00  0.00000000E+00
  0.00000000E+00  0.00000000E+00  0.00000000E+00
  0.00000000E+00  0.00000000E+00  0.00000000E+00
  0.00000000E+00  0.00000000E+00  0.00000000E+00
  0.00000000E+00  0.00000000E+00  0.00000000E+00
  0.00000000E+00  0.00000000E+00  0.00000000E+00
  0.00000000E+00  0.00000000E+00  0.00000000E+00
  0.00000000E+00  0.00000000E+00  0.00000000E+00
  0.00000000E+00  0.00000000E+00  0.00000000E+00
  0.00000000E+00  0.00000000E+00  0.00000000E+00
  0.00000000E+00  0.00000000E+00  0.00000000E+00
  0.00000000E+00  0.00000000E+00  0.00000000E+00
  0.00000000E+00  0.00000000E+00  0.00000000E+00
  0.00000000E+00  0.00000000E+00  0.00000000E+00
  0.00000000E+00  0.00000000E+00  0.00000000E+00
  0.00000000E+00  0.00000000E+00  0.00000000E+00
  0.00000000E+00  0.00000000E+00  0.00000000E+00
  0.00000000E+00  0.00000000E+00  0.00000000E+00
  0.00000000E+00  0.00000000E+00  0.00000000E+00
  0.00000000E+00  0.00000000E+00  0.00000000E+00
  0.00000000E+00  0.00000000E+00  0.00000000E+00
  0.00000000E+00  0.00000000E+00  0.00000000E+00
  0.00000000E+00  0.00000000E+00  0.00000000E+00
  0.00000000E+00  0.00000000E+00  0.00000000E+00
  0.00000000E+00  0.00000000E+00  0.00000000E+00
  0.00000000E+00  0.00000000E+00  0.00000000E+00
  0.00000000E+00  0.00000000E+00  0.00000000E+00
  0.00000000E+00  0.00000000E+00  0.00000000E+00
  0.00000000E+00  0.00000000E+00  0.00000000E+00
  0.00000000E+00  0.00000000E+00  0.00000000E+00
  0.00000000E+00  0.00000000E+00  0.00000000E+00
  0.00000000E+00  0.00000000E+00  0.00000000E+00
  0.00000000E+00  0.00000000E+00  0.00000000E+00
  0.00000000E+00  0.00000000E+00  0.00000000E+00
  0.00000000E+00  0.00000000E+00  0.00000000E+00
  0.00000000E+00  0.00000000E+00  0.00000000E+00
  0.00000000E+00  0.00000000E+00  0.00000000E+00
  0.00000000E+00  0.00000000E+00  0.00000000E+00
  0.00000000E+00  0.00000000E+00  0.00000000E+00
  0.00000000E+00  0.00000000E+00  0.00000000E+00
  0.00000000E+00  0.00000000E+00  0.00000000E+00
  0.00000000E+00  0.00000000E+00  0.00000000E+00
  0.00000000E+00  0.00000000E+00  0.00000000E+00
  0.00000000E+00  0.00000000E+00  0.00000000E+00
  0.00000000E+00  0.00000000E+00  0.00000000E+00
  0.00000000E+00  0.00000000E+00  0.00000000E+00
  0.00000000E+00  0.00000000E+00  0.00000000E+00
  0.00000000E+00  0.00000000E+00  0.00000000E+00
  0.00000000E+00  0.00000000E+00  0.00000000E+00
  0.00000000E+00  0.00000000E+00  0.00000000E+00
  0.00000000E+00  0.00000000E+00  0.00000000E+00
  0.00000000E+00  0.00000000E+00  0.00000000E+00
  0.00000000E+00  0.00000000E+00  0.00000000E+00
  0.00000000E+00  0.00000000E+00  0.00000000E+00
  0.00000000E+00  0.00000000E+00  0.00000000E+00
  0.00000000E+00  0.00000000E+00  0.00000000E+00
  0.00000000E+00  0.00000000E+00  0.00000000E+00
  0.00000000E+00  0.00000000E+00  0.00000000E+00
  0.00000000E+00  0.00000000E+00  0.00000000E+00
  0.00000000E+00  0.00000000E+00  0.00000000E+00
  0.00000000E+00  0.00000000E+00  0.00000000E+00
  0.00000000E+00  0.00000000E+00  0.00000000E+00
  0.00000000E+00  0.00000000E+00  0.00000000E+00
  0.00000000E+00  0.00000000E+00  0.00000000E+00
  0.00000000E+00  0.00000000E+00  0.00000000E+00
  0.00000000E+00  0.00000000E+00  0.00000000E+00
  0.00000000E+00  0.00000000E+00  0.00000000E+00
  0.00000000E+00  0.00000000E+00  0.00000000E+00
  0.00000000E+00  0.00000000E+00  0.00000000E+00
  0.00000000E+00  0.00000000E+00  0.00000000E+00
  0.00000000E+00  0.00000000E+00  0.00000000E+00
  0.00000000E+00  0.00000000E+00  0.00000000E+00
  0.00000000E+00  0.00000000E+00  0.00000000E+00
  0.00000000E+00  0.00000000E+00  0.00000000E+00
  0.00000000E+00  0.00000000E+00  0.00000000E+00
  0.00000000E+00  0.00000000E+00  0.00000000E+00
  0.00000000E+00  0.00000000E+00  0.00000000E+00
  0.00000000E+00  0.00000000E+00  0.00000000E+00
  0.00000000E+00  0.00000000E+00  0.00000000E+00
  0.00000000E+00  0.00000000E+00  0.00000000E+00
  0.00000000E+00  0.00000000E+00  0.00000000E+00
  0.00000000E+00  0.00000000E+00  0.00000000E+00
  0.00000000E+00  0.00000000E+00  0.00000000E+00
  0.00000000E+00  0.00000000E+00  0.00000000E+00
  0.00000000E+00  0.00000000E+00  0.00000000E+00
  0.00000000E+00  0.00000000E+00  0.00000000E+00
  0.00000000E+00  0.00000000E+00  0.00000000E+00
  0.00000000E+00  0.00000000E+00  0.00000000E+00
  0.00000000E+00  0.00000000E+00  0.00000000E+00
  0.00000000E+00  0.00000000E+00  0.00000000E+00
  0.00000000E+00  0.00000000E+00  0.00000000E+00
  0.00000000E+00  0.00000000E+00  0.00000000E+00
  0.00000000E+00  0.00000000E+00  0.00000000E+00
  0.00000000E+00  0.00000000E+00  0.00000000E+00
  0.00000000E+00  0.00000000E+00  0.00000000E+00
  0.00000000E+00  0.00000000E+00  0.00000000E+00
  0.00000000E+00  0.00000000E+00  0.00000000E+00
  0.00000000E+00  0.00000000E+00  0.00000000E+00
  0.00000000E+00  0.00000000E+00  0.00000000E+00
  0.00000000E+00  0.00000000E+00  0.00000000E+00
  0.00000000E+00  0.00000000E+00  0.00000000E+00
  0.00000000E+00  0.00000000E+00  0.00000000E+00
  0.00000000E+00  0.00000000E+00  0.00000000E+00
  0.00000000E+00  0.00000000E+00  0.00000000E+00
  0.00000000E+00  0.00000000E+00  0.00000000E+00
  0.00000000E+00  0.00000000E+00  0.00000000E+00
  0.00000000E+00  0.00000000E+00  0.00000000E+00
  0.00000000E+00  0.00000000E+00  0.00000000E+00