New structure                           
    1.000000000000000     
     0.0000000000000000  -15.1462217587961998    0.0000000000000000
     0.0000000000000000   -7.5731108793980804  -13.1170128144700993
    29.0000000000000000    0.0000000000000000    0.0000000000000000
   Ni   O 
   252     1
Direct
  0.4444800740842959  0.4443731851647365  0.1080244203510894
  0.4444456591335756  0.7777805097401181  0.1079554981690105
  0.4443233366361142  0.1112227092224817  0.1078711259412846
  0.7778338040924148  0.4443672701134779  0.1079451225572955
  0.7778076651221847  0.7777180030889664  0.1078158008090874
  0.7777872874747395  0.1112227092224817  0.1078711259412846
  0.1111322591274434  0.4443672701134779  0.1079451225572955
  0.1111071644596423  0.7777805097401181  0.1079554981690105
  0.1110842048806590  0.1111649235720247  0.1079109819914527
  0.5555635962600026  0.5555668588002514  0.1760926664232234
  0.5555138680410960  0.8888037142494828  0.1758473017671067
  0.5555287209494185  0.2222758914344982  0.1760272287272603
  0.8889422534242000  0.5554488264849283  0.1759130694389933
  0.8890157510427498  0.8888037142494828  0.1758473017671067
  0.8889100752332649  0.2223054641770612  0.1760367721845771
  0.2222028782730816  0.5555668588002514  0.1760926664232234
  0.2222215584667665  0.8888902163997949  0.1761000875423785
  0.2221177939230025  0.2223054641770612  0.1760367721845771
  0.6666473370290609  0.6667658880226818  0.2436599307292427
  0.6666837804648635 -0.0000342275963983  0.2435454348115152
  0.6666333674130529  0.3333466853585268  0.2437823939043136
 -0.0000798917184137  0.6667658880226818  0.2436599307292427
 -0.0000645794450469 -0.0000250239333866  0.2436654070206697
 -0.0000012902648635  0.3333359138630629  0.2437460120629029
  0.3333154389330934  0.6667024554671489  0.2438003847642642
  0.3334229367117693 -0.0000250239333866  0.2436654070206697
  0.3333532805617559  0.3333466853585268  0.2437823939043136
  0.7777580917381203  0.7778171498570949  0.3112798875175994
  0.7777397723065286  0.1110602031417636  0.3112895179366441
  0.7778779563656335  0.4443692100122353  0.3113549252095611
  0.1111495550384424  0.7777709590289139  0.3114044611504914
  0.1110720275272909  0.1111892782787609  0.3114135867183991
  0.1110861669554664  0.4443692100122353  0.3113549252095611
  0.4444128192659794  0.7777709590289139  0.3114044611504914
  0.4445333578850435  0.1110602031417636  0.3112895179366441
  0.4444212602666990  0.4444908127999306  0.3115455589212489
  0.8890995608316544  0.8887063870218057  0.3789390275951526
  0.8889268551187844  0.2221950513543889  0.3790349597930030
  0.8888401472844768  0.5556530387643750  0.3789193982690357
  0.2221926908089853  0.8889479517153580  0.3790132759456713
  0.2222114268601554  0.2221950513543889  0.3790349597930030
  0.2222786279462315  0.5556626618856614  0.3792824833322818
  0.5555273854798682  0.8887063870218057  0.3789390275951526
  0.5553955386532142  0.2225422560269062  0.3790092832551529
  0.5553920435014429  0.5556626618856614  0.3792824833322818
 -0.0002606987999992  0.0000332071636082  0.4465894485350519
  0.0000326177710115  0.3332680977913127  0.4468185447356141
  0.0003986021708908  0.6666666488950934  0.4465869723182900
  0.3335608249697268  0.0000332071636082  0.4465894485350519
  0.3333950246446267  0.3329273529585323  0.4466086468045878
  0.3332350855646310  0.6668631622040737  0.4474002750628682
  0.6666282062568302  0.0000769208196684  0.4466461492325822
  0.6670109557301764  0.3329273529585323  0.4466086468045878
  0.6662680822673440  0.6666666488950934  0.4465869723182900
  0.1109485384646139  0.1114362564041151  0.5149847108313010
  0.1100633033687794  0.4443086408988303  0.5146823207954144
  0.1100461697384418  0.7788361381156196  0.5146953752172957
  0.4447264187113813  0.1105597428741135  0.5145914378964516
  0.4459779918065311  0.4413773497202664  0.5183049053885841
  0.4444510254792742  0.7788361381156195  0.5146953752172957
  0.7780471717478409  0.1105597428741135  0.5145914378964516
  0.7789613890657262  0.4443086408988303  0.5146823207954144
  0.7777192230074598  0.7778948873184165  0.5146845848050555
  0.2777006034468136  0.2777989257941077  0.1079451225572955
  0.2777065184980722  0.6111467407509672  0.1080244203510894
  0.2777006034468136  0.9445004707590791  0.1079451225572955
  0.6111138430734538  0.2777738311263064  0.1079554981690105
  0.6111138430734538  0.6111123258002472  0.1079554981690105
  0.6110513364223021  0.9444743317888490  0.1078158008090874
  0.9444982569053532  0.2777508715473234  0.1079109819914527
  0.9445560425558106  0.6109900033027859  0.1078711259412846
  0.9445560425558106  0.9444539541414038  0.1078711259412846
  0.3889001921335805  0.3888695449397458  0.1760926664232234
  0.3889001921335805  0.7222302629266669  0.1760926664232234
  0.3887821598182570  0.0556089200908716  0.1759130694389933
  0.7222235497331306  0.3888882251334311  0.1761000875423785
  0.7221370475828185  0.7221805347077603  0.1758473017671067
  0.7221370475828185  0.0556824177094212  0.1758473017671067
  0.0556387975103970  0.3887844605896668  0.1760367721845771
  0.0556092247678340  0.7221953876160828  0.1760272287272603
  0.0556387975103970  0.0555767418999362  0.1760367721845771
  0.5000357888004844  0.4999821055997580  0.2438003847642642
  0.5000992213560173  0.8333140036957323  0.2436599307292427
  0.5000992213560173  0.1665867749482505  0.2436599307292427
  0.8333083093999490  0.5000896033784337  0.2436654070206697
  0.8332991057369377  0.8333504471315349  0.2435454348115152
  0.8333083093999490  0.1666020872216174  0.2436654070206697
  0.1666800186918555  0.5000199472284204  0.2437823939043136
  0.1666800186918554  0.8333000340797242  0.2437823939043136
  0.1666692471963913  0.1666653764018007  0.2437460120629029
  0.6111042923622496  0.6110794859326506  0.3114044611504914
  0.6111504831904306  0.9444247584047846  0.3112798875175994
  0.6111042923622496  0.2778162217051068  0.3114044611504914
  0.9443935364750923  0.6112000245517151  0.3112895179366441
  0.9443935364750923  0.9444064389731929  0.3112895179366441
  0.9445226116120897  0.2777386941939551  0.3114135867183991
  0.2778241461332663  0.6110879269333704  0.3115455589212489
  0.2777025433455710  0.9445446230322978  0.3113549252095611
  0.2777025433455710  0.2777528336221305  0.3113549252095611
  0.7220397203551414  0.7221940521465325  0.3789390275951526
  0.7220397203551414  0.0557662274983260  0.3789390275951526
  0.7222812850486937  0.3888593574756496  0.3790132759456713
  0.0558755893602419  0.7220622053198785  0.3790092832551529
  0.0555283846877247  0.0555935217854557  0.3790349597930030
  0.0555283846877247  0.3888780935268196  0.3790349597930030
  0.3889959952189900  0.7220587101681072  0.3792824833322818
  0.3889863720977035  0.0555068139511482  0.3789193982690357
  0.3889959952189900  0.3889452946128960  0.3792824833322818
  0.8334102541530042  0.8332948729235016  0.4466461492325822
  0.8333665404969438  0.1664059678666650  0.4465894485350519
  0.8333665404969438  0.5002274916363910  0.4465894485350519
  0.1662606862918608  0.8336776223968478  0.4466086468045878
  0.1666014311246413  0.1666992844376758  0.4468185447356141
  0.1662606862918608  0.5000616913112911  0.4466086468045878
  0.4999999822284292  0.8329347489340154  0.4465869723182900
  0.4999999822284292  0.1670652688375551  0.4465869723182900
  0.5001964955374095  0.4999017522312952  0.4474002750628682
  0.9438930762074420  0.9447138384145052  0.5145914378964516
  0.9447695897374436  0.2776152051312782  0.5149847108313010
  0.9438930762074420  0.6113930853780528  0.5145914378964516
  0.2776419742321660  0.9456280557323905  0.5146823207954144
  0.2776419742321660  0.2767299700354436  0.5146823207954144
  0.2747106830536021  0.6126446584732022  0.5183049053885841
  0.6112282206517522  0.9443858896741241  0.5146845848050555
  0.6121694714489553  0.2767128364051060  0.5146953752172957
  0.6121694714489552  0.6111176921459456  0.5146953752172957
  0.2777655336165094  0.4444322002831737  0.1080297457854716
  0.2777655336165094  0.7778022661003169  0.1080297457854716
  0.2776377338911651  0.1111811330544209  0.1079561820992498
  0.6111355994336526  0.4444322002831737  0.1080297457854716
  0.6110679019661728  0.7777345686328371  0.1077858480154619
  0.6110679019661728  0.1111975294009976  0.1077858480154619
  0.9445144663877496  0.4443044005578294  0.1079561820992498
  0.9445308627343261  0.7777345686328371  0.1077858480154619
  0.9445144663877496  0.1111811330544209  0.1079561820992498
  0.3888888888888857  0.5555555555555571  0.1760477810888610
  0.3888092951993788  0.8888969163813316  0.1760028720008701
  0.3888092951993788  0.2222937884192823  0.1760028720008701
  0.7222302497146673  0.5554759618660502  0.1760028720008701
  0.7222222222222214  0.8888888888888857  0.1758087764407861
  0.7222302497146673  0.2222937884192823  0.1760028720008701
  0.0556271217526180  0.5554759618660502  0.1760028720008701
  0.0556271217526180  0.8888969163813316  0.1760028720008701
  0.0555555555555571  0.2222222222222214  0.1760118149106677
  0.4999812526212631  0.6666479192879277  0.2438018504224980
  0.5001132884603304 -0.0000566442301651  0.2435625496818695
  0.4999812526212631  0.3333708280908089  0.2438018504224980
  0.8332766891031709  0.6667799551269946  0.2435625496818695
  0.8332766891031709 -0.0000566442301651  0.2435625496818695
  0.8333176940803186  0.3333411529598442  0.2437621070397014
  0.1667041614241375  0.6666479192879277  0.2438018504224980
  0.1666744862931727 -0.0000156392530168  0.2437621070397014
  0.1666744862931727  0.3333411529598442  0.2437621070397014
  0.6111197821098266  0.7777864487764909  0.3112379024735671
  0.6111197821098266  0.1110937691136900  0.3112379024735671
  0.6110880457860890  0.4444559771069555  0.3115150545334822
  0.9444271024470186  0.7777864487764909  0.3112379024735671
  0.9444588904624189  0.1111255571290901  0.3113601385813363
  0.9444588904624189  0.4444155524084911  0.3113601385813363
  0.2777893104402912  0.7777547124527533  0.3115150545334822
  0.2777488857418268  0.1111255571290901  0.3113601385813363
  0.2777893104402912  0.4444559771069555  0.3115150545334822
  0.7222222222222214  0.8888888888888857  0.3789893598571989
  0.7222031544335211  0.2222519534241339  0.3789226881247196
  0.7222031544335211  0.5555448921423451  0.3789226881247196
  0.0555852867574696  0.8888698211001854  0.3789226881247196
  0.0555555555555571  0.2222222222222214  0.3790794141941787
  0.0555852867574696  0.5555448921423451  0.3789226881247196
  0.3888782254756739  0.8888698211001854  0.3789226881247196
  0.3888782254756739  0.2222519534241339  0.3789226881247196
  0.3888888888888857  0.5555555555555571  0.3796276662041285
  0.8331544614320594 -0.0001788719012763  0.4464945764818078
  0.8335604906043728  0.3332197546978172  0.4467248231521458
  0.8331544614320594  0.6670244104692170  0.4464945764818078
  0.1665530880311459  0.0002271572710370  0.4467248231521458
  0.1665530880311459  0.3332197546978172  0.4467248231521458
  0.1683864797934132  0.6658067601032899  0.4478329497076551
  0.5003577438025527 -0.0001788719012763  0.4464945764818078
  0.4991400934366257  0.3350531464600845  0.4478329497076551
  0.4991400934366257  0.6658067601032899  0.4478329497076551
  0.9444857924284950  0.1111524590951657  0.5147428505707378
  0.9444857924284950  0.4443617484763398  0.5147428505707378
  0.9441002584319743  0.7779498707840127  0.5146958682023096
  0.2776950818096755  0.1111524590951657  0.5147428505707378
  0.2752441213713199  0.4419107880379842  0.5142695451048565
  0.2752441213713199  0.7828450905906960  0.5142695451048565
  0.6112832041173484  0.1107669250986457  0.5146958682023096
  0.6161784239240317  0.4419107880379842  0.5142695451048565
  0.6112832041173484  0.7779498707840127  0.5146958682023096
  0.4444456591335756  0.2777738311263064  0.1079554981690105
  0.4444800740842959  0.6111467407509672  0.1080244203510894
  0.4443233366361142  0.9444539541414038  0.1078711259412846
  0.7778338040924148  0.2777989257941077  0.1079451225572955
  0.7777872874747395  0.6109900033027859  0.1078711259412846
  0.7778076651221847  0.9444743317888490  0.1078158008090874
  0.1110842048806590  0.2777508715473234  0.1079109819914527
  0.1111071644596423  0.6111123258002472  0.1079554981690105
  0.1111322591274434  0.9445004707590791  0.1079451225572955
  0.5555635962600026  0.3888695449397458  0.1760926664232234
  0.5555287209494185  0.7221953876160828  0.1760272287272603
  0.5555138680410960  0.0556824177094212  0.1758473017671067
  0.8889100752332649  0.3887844605896668  0.1760367721845771
  0.8890157510427498  0.7221805347077603  0.1758473017671067
  0.8889422534242000  0.0556089200908716  0.1759130694389933
  0.2222215584667665  0.3888882251334311  0.1761000875423785
  0.2222028782730816  0.7222302629266669  0.1760926664232234
  0.2221177939230025  0.0555767418999362  0.1760367721845771
  0.6666333674130529  0.5000199472284204  0.2437823939043136
  0.6666837804648635  0.8333504471315349  0.2435454348115152
  0.6666473370290609  0.1665867749482505  0.2436599307292427
 -0.0000645794450469  0.5000896033784337  0.2436654070206697
 -0.0000798917184137  0.8333140036957323  0.2436599307292427
 -0.0000012902648635  0.1666653764018007  0.2437460120629029
  0.3333154389330934  0.4999821055997580  0.2438003847642642
  0.3333532805617559  0.8333000340797242  0.2437823939043136
  0.3334229367117693  0.1666020872216174  0.2436654070206697
  0.7777397723065286  0.6112000245517151  0.3112895179366441
  0.7777580917381203  0.9444247584047846  0.3112798875175994
  0.7778779563656335  0.2777528336221305  0.3113549252095611
  0.1111495550384424  0.6110794859326506  0.3114044611504914
  0.1110861669554664  0.9445446230322978  0.3113549252095611
  0.1110720275272909  0.2777386941939551  0.3114135867183991
  0.4444212602666990  0.6110879269333704  0.3115455589212489
  0.4445333578850435  0.9444064389731929  0.3112895179366441
  0.4444128192659794  0.2778162217051068  0.3114044611504914
  0.8890995608316544  0.7221940521465325  0.3789390275951526
  0.8888401472844768  0.0555068139511482  0.3789193982690357
  0.8889268551187844  0.3888780935268196  0.3790349597930030
  0.2222786279462315  0.7220587101681072  0.3792824833322818
  0.2222114268601554  0.0555935217854557  0.3790349597930030
  0.2221926908089853  0.3888593574756496  0.3790132759456713
  0.5553955386532142  0.7220622053198785  0.3790092832551529
  0.5555273854798682  0.0557662274983260  0.3789390275951526
  0.5553920435014429  0.3889452946128960  0.3792824833322818
  0.0003986021708908  0.8329347489340154  0.4465869723182900
  0.0000326177710115  0.1666992844376758  0.4468185447356141
 -0.0002606987999992  0.5002274916363910  0.4465894485350519
  0.3333950246446267  0.8336776223968478  0.4466086468045878
  0.3335608249697268  0.1664059678666650  0.4465894485350519
  0.3332350855646310  0.4999017522312952  0.4474002750628682
  0.6666282062568302  0.8332948729235016  0.4466461492325822
  0.6662680822673440  0.1670652688375551  0.4465869723182900
  0.6670109557301764  0.5000616913112911  0.4466086468045878
  0.1100633033687794  0.9456280557323905  0.5146823207954144
  0.1109485384646139  0.2776152051312782  0.5149847108313010
  0.1100461697384418  0.6111176921459456  0.5146953752172957
  0.4447264187113813  0.9447138384145052  0.5145914378964516
  0.4444510254792742  0.2767128364051060  0.5146953752172957
  0.4459779918065311  0.6126446584732022  0.5183049053885841
  0.7777192230074598  0.9443858896741241  0.5146845848050555
  0.7789613890657262  0.2767299700354436  0.5146823207954144
  0.7780471717478409  0.6113930853780528  0.5145914378964516
  0.3888888888888857  0.5555555555555571  0.5534854825642149
 
  0.00000000E+00  0.00000000E+00  0.00000000E+00
  0.00000000E+00  0.00000000E+00  0.00000000E+00
  0.00000000E+00  0.00000000E+00  0.00000000E+00
  0.00000000E+00  0.00000000E+00  0.00000000E+00
  0.00000000E+00  0.00000000E+00  0.00000000E+00
  0.00000000E+00  0.00000000E+00  0.00000000E+00
  0.00000000E+00  0.00000000E+00  0.00000000E+00
  0.00000000E+00  0.00000000E+00  0.00000000E+00
  0.00000000E+00  0.00000000E+00  0.00000000E+00
  0.00000000E+00  0.00000000E+00  0.00000000E+00
  0.00000000E+00  0.00000000E+00  0.00000000E+00
  0.00000000E+00  0.00000000E+00  0.00000000E+00
  0.00000000E+00  0.00000000E+00  0.00000000E+00
  0.00000000E+00  0.00000000E+00  0.00000000E+00
  0.00000000E+00  0.00000000E+00  0.00000000E+00
  0.00000000E+00  0.00000000E+00  0.00000000E+00
  0.00000000E+00  0.00000000E+00  0.00000000E+00
  0.00000000E+00  0.00000000E+00  0.00000000E+00
  0.00000000E+00  0.00000000E+00  0.00000000E+00
  0.00000000E+00  0.00000000E+00  0.00000000E+00
  0.00000000E+00  0.00000000E+00  0.00000000E+00
  0.00000000E+00  0.00000000E+00  0.00000000E+00
  0.00000000E+00  0.00000000E+00  0.00000000E+00
  0.00000000E+00  0.00000000E+00  0.00000000E+00
  0.00000000E+00  0.00000000E+00  0.00000000E+00
  0.00000000E+00  0.00000000E+00  0.00000000E+00
  0.00000000E+00  0.00000000E+00  0.00000000E+00
  0.00000000E+00  0.00000000E+00  0.00000000E+00
  0.00000000E+00  0.00000000E+00  0.00000000E+00
  0.00000000E+00  0.00000000E+00  0.00000000E+00
  0.00000000E+00  0.00000000E+00  0.00000000E+00
  0.00000000E+00  0.00000000E+00  0.00000000E+00
  0.00000000E+00  0.00000000E+00  0.00000000E+00
  0.00000000E+00  0.00000000E+00  0.00000000E+00
  0.00000000E+00  0.00000000E+00  0.00000000E+00
  0.00000000E+00  0.00000000E+00  0.00000000E+00
  0.00000000E+00  0.00000000E+00  0.00000000E+00
  0.00000000E+00  0.00000000E+00  0.00000000E+00
  0.00000000E+00  0.00000000E+00  0.00000000E+00
  0.00000000E+00  0.00000000E+00  0.00000000E+00
  0.00000000E+00  0.00000000E+00  0.00000000E+00
  0.00000000E+00  0.00000000E+00  0.00000000E+00
  0.00000000E+00  0.00000000E+00  0.00000000E+00
  0.00000000E+00  0.00000000E+00  0.00000000E+00
  0.00000000E+00  0.00000000E+00  0.00000000E+00
  0.00000000E+00  0.00000000E+00  0.00000000E+00
  0.00000000E+00  0.00000000E+00  0.00000000E+00
  0.00000000E+00  0.00000000E+00  0.00000000E+00
  0.00000000E+00  0.00000000E+00  0.00000000E+00
  0.00000000E+00  0.00000000E+00  0.00000000E+00
  0.00000000E+00  0.00000000E+00  0.00000000E+00
  0.00000000E+00  0.00000000E+00  0.00000000E+00
  0.00000000E+00  0.00000000E+00  0.00000000E+00
  0.00000000E+00  0.00000000E+00  0.00000000E+00
  0.00000000E+00  0.00000000E+00  0.00000000E+00
  0.00000000E+00  0.00000000E+00  0.00000000E+00
  0.00000000E+00  0.00000000E+00  0.00000000E+00
  0.00000000E+00  0.00000000E+00  0.00000000E+00
  0.00000000E+00  0.00000000E+00  0.00000000E+00
  0.00000000E+00  0.00000000E+00  0.00000000E+00
  0.00000000E+00  0.00000000E+00  0.00000000E+00
  0.00000000E+00  0.00000000E+00  0.00000000E+00
  0.00000000E+00  0.00000000E+00  0.00000000E+00
  0.00000000E+00  0.00000000E+00  0.00000000E+00
  0.00000000E+00  0.00000000E+00  0.00000000E+00
  0.00000000E+00  0.00000000E+00  0.00000000E+00
  0.00000000E+00  0.00000000E+00  0.00000000E+00
  0.00000000E+00  0.00000000E+00  0.00000000E+00
  0.00000000E+00  0.00000000E+00  0.00000000E+00
  0.00000000E+00  0.00000000E+00  0.00000000E+00
  0.00000000E+00  0.00000000E+00  0.00000000E+00
  0.00000000E+00  0.00000000E+00  0.00000000E+00
  0.00000000E+00  0.00000000E+00  0.00000000E+00
  0.00000000E+00  0.00000000E+00  0.00000000E+00
  0.00000000E+00  0.00000000E+00  0.00000000E+00
  0.00000000E+00  0.00000000E+00  0.00000000E+00
  0.00000000E+00  0.00000000E+00  0.00000000E+00
  0.00000000E+00  0.00000000E+00  0.00000000E+00
  0.00000000E+00  0.00000000E+00  0.00000000E+00
  0.00000000E+00  0.00000000E+00  0.00000000E+00
  0.00000000E+00  0.00000000E+00  0.00000000E+00
  0.00000000E+00  0.00000000E+00  0.00000000E+00
  0.00000000E+00  0.00000000E+00  0.00000000E+00
  0.00000000E+00  0.00000000E+00  0.00000000E+00
  0.00000000E+00  0.00000000E+00  0.00000000E+00
  0.00000000E+00  0.00000000E+00  0.00000000E+00
  0.00000000E+00  0.00000000E+00  0.00000000E+00
  0.00000000E+00  0.00000000E+00  0.00000000E+00
  0.00000000E+00  0.00000000E+00  0.00000000E+00
  0.00000000E+00  0.00000000E+00  0.00000000E+00
  0.00000000E+00  0.00000000E+00  0.00000000E+00
  0.00000000E+00  0.00000000E+00  0.00000000E+00
  0.00000000E+00  0.00000000E+00  0.00000000E+00
  0.00000000E+00  0.00000000E+00  0.00000000E+00
  0.00000000E+00  0.00000000E+00  0.00000000E+00
  0.00000000E+00  0.00000000E+00  0.00000000E+00
  0.00000000E+00  0.00000000E+00  0.00000000E+00
  0.00000000E+00  0.00000000E+00  0.00000000E+00
  0.00000000E+00  0.00000000E+00  0.00000000E+00
  0.00000000E+00  0.00000000E+00  0.00000000E+00
  0.00000000E+00  0.00000000E+00  0.00000000E+00
  0.00000000E+00  0.00000000E+00  0.00000000E+00
  0.00000000E+00  0.00000000E+00  0.00000000E+00
  0.00000000E+00  0.00000000E+00  0.00000000E+00
  0.00000000E+00  0.00000000E+00  0.00000000E+00
  0.00000000E+00  0.00000000E+00  0.00000000E+00
  0.00000000E+00  0.00000000E+00  0.00000000E+00
  0.00000000E+00  0.00000000E+00  0.00000000E+00
  0.00000000E+00  0.00000000E+00  0.00000000E+00
  0.00000000E+00  0.00000000E+00  0.00000000E+00
  0.00000000E+00  0.00000000E+00  0.00000000E+00
  0.00000000E+00  0.00000000E+00  0.00000000E+00
  0.00000000E+00  0.00000000E+00  0.00000000E+00
  0.00000000E+00  0.00000000E+00  0.00000000E+00
  0.00000000E+00  0.00000000E+00  0.00000000E+00
  0.00000000E+00  0.00000000E+00  0.00000000E+00
  0.00000000E+00  0.00000000E+00  0.00000000E+00
  0.00000000E+00  0.00000000E+00  0.00000000E+00
  0.00000000E+00  0.00000000E+00  0.00000000E+00
  0.00000000E+00  0.00000000E+00  0.00000000E+00
  0.00000000E+00  0.00000000E+00  0.00000000E+00
  0.00000000E+00  0.00000000E+00  0.00000000E+00
  0.00000000E+00  0.00000000E+00  0.00000000E+00
  0.00000000E+00  0.00000000E+00  0.00000000E+00
  0.00000000E+00  0.00000000E+00  0.00000000E+00
  0.00000000E+00  0.00000000E+00  0.00000000E+00
  0.00000000E+00  0.00000000E+00  0.00000000E+00
  0.00000000E+00  0.00000000E+00  0.00000000E+00
  0.00000000E+00  0.00000000E+00  0.00000000E+00
  0.00000000E+00  0.00000000E+00  0.00000000E+00
  0.00000000E+00  0.00000000E+00  0.00000000E+00
  0.00000000E+00  0.00000000E+00  0.00000000E+00
  0.00000000E+00  0.00000000E+00  0.00000000E+00
  0.00000000E+00  0.00000000E+00  0.00000000E+00
  0.00000000E+00  0.00000000E+00  0.00000000E+00
  0.00000000E+00  0.00000000E+00  0.00000000E+00
  0.00000000E+00  0.00000000E+00  0.00000000E+00
  0.00000000E+00  0.00000000E+00  0.00000000E+00
  0.00000000E+00  0.00000000E+00  0.00000000E+00
  0.00000000E+00  0.00000000E+00  0.00000000E+00
  0.00000000E+00  0.00000000E+00  0.00000000E+00
  0.00000000E+00  0.00000000E+00  0.00000000E+00
  0.00000000E+00  0.00000000E+00  0.00000000E+00
  0.00000000E+00  0.00000000E+00  0.00000000E+00
  0.00000000E+00  0.00000000E+00  0.00000000E+00
  0.00000000E+00  0.00000000E+00  0.00000000E+00
  0.00000000E+00  0.00000000E+00  0.00000000E+00
  0.00000000E+00  0.00000000E+00  0.00000000E+00
  0.00000000E+00  0.00000000E+00  0.00000000E+00
  0.00000000E+00  0.00000000E+00  0.00000000E+00
  0.00000000E+00  0.00000000E+00  0.00000000E+00
  0.00000000E+00  0.00000000E+00  0.00000000E+00
  0.00000000E+00  0.00000000E+00  0.00000000E+00
  0.00000000E+00  0.00000000E+00  0.00000000E+00
  0.00000000E+00  0.00000000E+00  0.00000000E+00
  0.00000000E+00  0.00000000E+00  0.00000000E+00
  0.00000000E+00  0.00000000E+00  0.00000000E+00
  0.00000000E+00  0.00000000E+00  0.00000000E+00
  0.00000000E+00  0.00000000E+00  0.00000000E+00
  0.00000000E+00  0.00000000E+00  0.00000000E+00
  0.00000000E+00  0.00000000E+00  0.00000000E+00
  0.00000000E+00  0.00000000E+00  0.00000000E+00
  0.00000000E+00  0.00000000E+00  0.00000000E+00
  0.00000000E+00  0.00000000E+00  0.00000000E+00
  0.00000000E+00  0.00000000E+00  0.00000000E+00
  0.00000000E+00  0.00000000E+00  0.00000000E+00
  0.00000000E+00  0.00000000E+00  0.00000000E+00
  0.00000000E+00  0.00000000E+00  0.00000000E+00
  0.00000000E+00  0.00000000E+00  0.00000000E+00
  0.00000000E+00  0.00000000E+00  0.00000000E+00
  0.00000000E+00  0.00000000E+00  0.00000000E+00
  0.00000000E+00  0.00000000E+00  0.00000000E+00
  0.00000000E+00  0.00000000E+00  0.00000000E+00
  0.00000000E+00  0.00000000E+00  0.00000000E+00
  0.00000000E+00  0.00000000E+00  0.00000000E+00
  0.00000000E+00  0.00000000E+00  0.00000000E+00
  0.00000000E+00  0.00000000E+00  0.00000000E+00
  0.00000000E+00  0.00000000E+00  0.00000000E+00
  0.00000000E+00  0.00000000E+00  0.00000000E+00
  0.00000000E+00  0.00000000E+00  0.00000000E+00
  0.00000000E+00  0.00000000E+00  0.00000000E+00
  0.00000000E+00  0.00000000E+00  0.00000000E+00
  0.00000000E+00  0.00000000E+00  0.00000000E+00
  0.00000000E+00  0.00000000E+00  0.00000000E+00
  0.00000000E+00  0.00000000E+00  0.00000000E+00
  0.00000000E+00  0.00000000E+00  0.00000000E+00
  0.00000000E+00  0.00000000E+00  0.00000000E+00
  0.00000000E+00  0.00000000E+00  0.00000000E+00
  0.00000000E+00  0.00000000E+00  0.00000000E+00
  0.00000000E+00  0.00000000E+00  0.00000000E+00
  0.00000000E+00  0.00000000E+00  0.00000000E+00
  0.00000000E+00  0.00000000E+00  0.00000000E+00
  0.00000000E+00  0.00000000E+00  0.00000000E+00
  0.00000000E+00  0.00000000E+00  0.00000000E+00
  0.00000000E+00  0.00000000E+00  0.00000000E+00
  0.00000000E+00  0.00000000E+00  0.00000000E+00
  0.00000000E+00  0.00000000E+00  0.00000000E+00
  0.00000000E+00  0.00000000E+00  0.00000000E+00
  0.00000000E+00  0.00000000E+00  0.00000000E+00
  0.00000000E+00  0.00000000E+00  0.00000000E+00
  0.00000000E+00  0.00000000E+00  0.00000000E+00
  0.00000000E+00  0.00000000E+00  0.00000000E+00
  0.00000000E+00  0.00000000E+00  0.00000000E+00
  0.00000000E+00  0.00000000E+00  0.00000000E+00
  0.00000000E+00  0.00000000E+00  0.00000000E+00
  0.00000000E+00  0.00000000E+00  0.00000000E+00
  0.00000000E+00  0.00000000E+00  0.00000000E+00
  0.00000000E+00  0.00000000E+00  0.00000000E+00
  0.00000000E+00  0.00000000E+00  0.00000000E+00
  0.00000000E+00  0.00000000E+00  0.00000000E+00
  0.00000000E+00  0.00000000E+00  0.00000000E+00
  0.00000000E+00  0.00000000E+00  0.00000000E+00
  0.00000000E+00  0.00000000E+00  0.00000000E+00
  0.00000000E+00  0.00000000E+00  0.00000000E+00
  0.00000000E+00  0.00000000E+00  0.00000000E+00
  0.00000000E+00  0.00000000E+00  0.00000000E+00
  0.00000000E+00  0.00000000E+00  0.00000000E+00
  0.00000000E+00  0.00000000E+00  0.00000000E+00
  0.00000000E+00  0.00000000E+00  0.00000000E+00
  0.00000000E+00  0.00000000E+00  0.00000000E+00
  0.00000000E+00  0.00000000E+00  0.00000000E+00
  0.00000000E+00  0.00000000E+00  0.00000000E+00
  0.00000000E+00  0.00000000E+00  0.00000000E+00
  0.00000000E+00  0.00000000E+00  0.00000000E+00
  0.00000000E+00  0.00000000E+00  0.00000000E+00
  0.00000000E+00  0.00000000E+00  0.00000000E+00
  0.00000000E+00  0.00000000E+00  0.00000000E+00
  0.00000000E+00  0.00000000E+00  0.00000000E+00
  0.00000000E+00  0.00000000E+00  0.00000000E+00
  0.00000000E+00  0.00000000E+00  0.00000000E+00
  0.00000000E+00  0.00000000E+00  0.00000000E+00
  0.00000000E+00  0.00000000E+00  0.00000000E+00
  0.00000000E+00  0.00000000E+00  0.00000000E+00
  0.00000000E+00  0.00000000E+00  0.00000000E+00
  0.00000000E+00  0.00000000E+00  0.00000000E+00
  0.00000000E+00  0.00000000E+00  0.00000000E+00
  0.00000000E+00  0.00000000E+00  0.00000000E+00
  0.00000000E+00  0.00000000E+00  0.00000000E+00
  0.00000000E+00  0.00000000E+00  0.00000000E+00
  0.00000000E+00  0.00000000E+00  0.00000000E+00
  0.00000000E+00  0.00000000E+00  0.00000000E+00
  0.00000000E+00  0.00000000E+00  0.00000000E+00
  0.00000000E+00  0.00000000E+00  0.00000000E+00
  0.00000000E+00  0.00000000E+00  0.00000000E+00
  0.00000000E+00  0.00000000E+00  0.00000000E+00
  0.00000000E+00  0.00000000E+00  0.00000000E+00
  0.00000000E+00  0.00000000E+00  0.00000000E+00
  0.00000000E+00  0.00000000E+00  0.00000000E+00
  0.00000000E+00  0.00000000E+00  0.00000000E+00
  0.00000000E+00  0.00000000E+00  0.00000000E+00
  0.00000000E+00  0.00000000E+00  0.00000000E+00
  0.00000000E+00  0.00000000E+00  0.00000000E+00
  0.00000000E+00  0.00000000E+00  0.00000000E+00
