New structure
1.0
    0.0 -17.180573462489548 0.0
    0.0 -8.5902867312447739       -14.878813070100719
    30.0 0.0 0.0
   Al
  252
Cartesian
 2.3379799150833884       -11.453715641659699       -6.6128058089336532
 2.3379799150833880       -14.317144552074623       -11.572410165633894
 2.3379799150833875       -17.180573462489548       -16.532014522334133
 2.3379799150833880       -17.180573462489548       -6.6128058089336532
 2.3379799150833875       -20.044002372904473       -11.572410165633894
 2.3379799150833871       -22.907431283319397       -16.532014522334133
 2.3379799150833875       -22.907431283319397       -6.6128058089336532
 2.3379799150833871       -25.770860193734322       -11.572410165633894
 2.3379799150833867       -28.634289104149246       -16.532014522334133
 4.6759598301667777       -14.317144552074623       -8.2660072611670667
 4.6759598301667769       -17.180573462489548       -13.225611617867306
 4.6759598301667769       -20.044002372904473       -18.185215974567548
 4.6759598301667769       -20.044002372904473       -8.2660072611670667
 4.6759598301667769       -22.907431283319397       -13.225611617867306
 4.6759598301667760       -25.770860193734322       -18.185215974567548
 4.6759598301667769       -25.770860193734322       -8.2660072611670667
 4.6759598301667769       -28.634289104149246       -13.225611617867306
 4.6759598301667760       -31.497718014564171       -18.185215974567548
 7.0139397452501671       -17.180573462489548       -9.9192087134004812
 7.0139397452501662       -20.044002372904473       -14.878813070100721
 7.0139397452501662       -22.907431283319397       -19.838417426800959
 7.0139397452501662       -22.907431283319397       -9.9192087134004812
 7.0139397452501662       -25.770860193734322       -14.878813070100721
 7.0139397452501653       -28.634289104149246       -19.838417426800959
 7.0139397452501662       -28.634289104149246       -9.9192087134004812
 7.0139397452501662       -31.497718014564171       -14.878813070100721
 7.0139397452501653       -34.361146924979096       -19.838417426800959
 9.3519196603335573       -20.044002372904473       -11.572410165633894
 9.3519196603335573       -22.907431283319397       -16.532014522334133
 9.3519196603335573       -25.770860193734322       -21.491618879034373
 9.3519196603335573       -25.770860193734322       -11.572410165633894
 9.3519196603335573       -28.634289104149246       -16.532014522334133
 9.3519196603335573       -31.497718014564171       -21.491618879034373
 9.3519196603335573       -31.497718014564171       -11.572410165633894
 9.3519196603335573       -34.361146924979096       -16.532014522334133
 9.3519196603335573       -37.224575835394020       -21.491618879034373
 11.689899575416945       -22.907431283319397       -13.225611617867308
 11.689899575416945       -25.770860193734322       -18.185215974567548
 11.689899575416945       -28.634289104149246       -23.144820331267788
 11.689899575416945       -28.634289104149246       -13.225611617867308
 11.689899575416945       -31.497718014564171       -18.185215974567548
 11.689899575416945       -34.361146924979096       -23.144820331267788
 11.689899575416945       -34.361146924979096       -13.225611617867308
 11.689899575416945       -37.224575835394020       -18.185215974567548
 11.689899575416945       -40.088004745808945       -23.144820331267788
 14.027879490500336       -25.770860193734322       -14.878813070100723
 14.027879490500336       -28.634289104149246       -19.838417426800962
 14.027879490500336       -31.497718014564171       -24.798021783501202
 14.027879490500336       -31.497718014564171       -14.878813070100723
 14.027879490500336       -34.361146924979096       -19.838417426800962
 14.027879490500336       -37.224575835394020       -24.798021783501202
 14.027879490500336       -37.224575835394020       -14.878813070100723
 14.027879490500336       -40.088004745808945       -19.838417426800962
 14.027879490500336       -42.951433656223870       -24.798021783501202
 16.365859405583723       -28.634289104149246       -16.532014522334137
 16.365859405583723       -31.497718014564171       -21.491618879034377
 16.365859405583723       -34.361146924979096       -26.451223235734616
 16.365859405583723       -34.361146924979096       -16.532014522334137
 16.365859405583723       -37.224575835394020       -21.491618879034377
 16.365859405583723       -40.088004745808945       -26.451223235734616
 16.365859405583723       -40.088004745808945       -16.532014522334137
 16.365859405583723       -42.951433656223870       -21.491618879034377
 16.365859405583723       -45.814862566638794       -26.451223235734616
 2.3379799150833884       -7.1585722760373116       -4.1330036305835334
 2.3379799150833880       -10.022001186452236       -9.0926079872837740
 2.3379799150833875       -12.885430096867161       -14.052212343984014
 2.3379799150833880       -12.885430096867161       -4.1330036305835334
 2.3379799150833875       -15.748859007282086       -9.0926079872837740
 2.3379799150833871       -18.612287917697010       -14.052212343984014
 2.3379799150833875       -18.612287917697010       -4.1330036305835334
 2.3379799150833871       -21.475716828111935       -9.0926079872837740
 2.3379799150833867       -24.339145738526859       -14.052212343984014
 4.6759598301667777       -10.022001186452236       -5.7862050828169469
 4.6759598301667769       -12.885430096867161       -10.745809439517187
 4.6759598301667769       -15.748859007282086       -15.705413796217426
 4.6759598301667769       -15.748859007282086       -5.7862050828169469
 4.6759598301667769       -18.612287917697010       -10.745809439517187
 4.6759598301667760       -21.475716828111935       -15.705413796217426
 4.6759598301667769       -21.475716828111935       -5.7862050828169469
 4.6759598301667769       -24.339145738526859       -10.745809439517187
 4.6759598301667760       -27.202574648941784       -15.705413796217426
 7.0139397452501671       -12.885430096867161       -7.4394065350503613
 7.0139397452501662       -15.748859007282086       -12.399010891750601
 7.0139397452501662       -18.612287917697010       -17.358615248450839
 7.0139397452501662       -18.612287917697010       -7.4394065350503613
 7.0139397452501662       -21.475716828111935       -12.399010891750601
 7.0139397452501653       -24.339145738526859       -17.358615248450839
 7.0139397452501662       -24.339145738526859       -7.4394065350503613
 7.0139397452501662       -27.202574648941784       -12.399010891750601
 7.0139397452501653       -30.066003559356709       -17.358615248450839
 9.3519196603335573       -15.748859007282086       -9.0926079872837740
 9.3519196603335573       -18.612287917697010       -14.052212343984014
 9.3519196603335573       -21.475716828111935       -19.011816700684253
 9.3519196603335573       -21.475716828111935       -9.0926079872837740
 9.3519196603335573       -24.339145738526859       -14.052212343984014
 9.3519196603335573       -27.202574648941784       -19.011816700684253
 9.3519196603335573       -27.202574648941784       -9.0926079872837740
 9.3519196603335573       -30.066003559356709       -14.052212343984014
 9.3519196603335573       -32.929432469771633       -19.011816700684253
 11.689899575416945       -18.612287917697010       -10.745809439517188
 11.689899575416945       -21.475716828111935       -15.705413796217428
 11.689899575416945       -24.339145738526859       -20.665018152917668
 11.689899575416945       -24.339145738526859       -10.745809439517188
 11.689899575416945       -27.202574648941784       -15.705413796217428
 11.689899575416945       -30.066003559356709       -20.665018152917668
 11.689899575416945       -30.066003559356709       -10.745809439517188
 11.689899575416945       -32.929432469771633       -15.705413796217428
 11.689899575416945       -35.792861380186558       -20.665018152917668
 14.027879490500336       -21.475716828111935       -12.399010891750603
 14.027879490500336       -24.339145738526859       -17.358615248450842
 14.027879490500336       -27.202574648941784       -22.318219605151082
 14.027879490500336       -27.202574648941784       -12.399010891750603
 14.027879490500336       -30.066003559356709       -17.358615248450842
 14.027879490500336       -32.929432469771633       -22.318219605151082
 14.027879490500336       -32.929432469771633       -12.399010891750603
 14.027879490500336       -35.792861380186558       -17.358615248450842
 14.027879490500336       -38.656290290601483       -22.318219605151082
 16.365859405583723       -24.339145738526859       -14.052212343984017
 16.365859405583723       -27.202574648941784       -19.011816700684257
 16.365859405583723       -30.066003559356709       -23.971421057384497
 16.365859405583723       -30.066003559356709       -14.052212343984017
 16.365859405583723       -32.929432469771633       -19.011816700684257
 16.365859405583723       -35.792861380186558       -23.971421057384497
 16.365859405583723       -35.792861380186558       -14.052212343984017
 16.365859405583723       -38.656290290601483       -19.011816700684257
 16.365859405583723       -41.519719201016407       -23.971421057384497
 2.3379799150833884       -8.5902867312447739       -6.6128058089336532
 2.3379799150833880       -11.453715641659699       -11.572410165633894
 2.3379799150833875       -14.317144552074623       -16.532014522334133
 2.3379799150833880       -14.317144552074623       -6.6128058089336532
 2.3379799150833875       -17.180573462489548       -11.572410165633894
 2.3379799150833871       -20.044002372904473       -16.532014522334133
 2.3379799150833875       -20.044002372904473       -6.6128058089336532
 2.3379799150833871       -22.907431283319397       -11.572410165633894
 2.3379799150833867       -25.770860193734322       -16.532014522334133
 4.6759598301667777       -11.453715641659699       -8.2660072611670667
 4.6759598301667769       -14.317144552074623       -13.225611617867306
 4.6759598301667769       -17.180573462489548       -18.185215974567548
 4.6759598301667769       -17.180573462489548       -8.2660072611670667
 4.6759598301667769       -20.044002372904473       -13.225611617867306
 4.6759598301667760       -22.907431283319397       -18.185215974567548
 4.6759598301667769       -22.907431283319397       -8.2660072611670667
 4.6759598301667769       -25.770860193734322       -13.225611617867306
 4.6759598301667760       -28.634289104149246       -18.185215974567548
 7.0139397452501671       -14.317144552074623       -9.9192087134004812
 7.0139397452501662       -17.180573462489548       -14.878813070100721
 7.0139397452501662       -20.044002372904473       -19.838417426800959
 7.0139397452501662       -20.044002372904473       -9.9192087134004812
 7.0139397452501662       -22.907431283319397       -14.878813070100721
 7.0139397452501653       -25.770860193734322       -19.838417426800959
 7.0139397452501662       -25.770860193734322       -9.9192087134004812
 7.0139397452501662       -28.634289104149246       -14.878813070100721
 7.0139397452501653       -31.497718014564171       -19.838417426800959
 9.3519196603335573       -17.180573462489548       -11.572410165633894
 9.3519196603335573       -20.044002372904473       -16.532014522334133
 9.3519196603335573       -22.907431283319397       -21.491618879034373
 9.3519196603335573       -22.907431283319397       -11.572410165633894
 9.3519196603335573       -25.770860193734322       -16.532014522334133
 9.3519196603335573       -28.634289104149246       -21.491618879034373
 9.3519196603335573       -28.634289104149246       -11.572410165633894
 9.3519196603335573       -31.497718014564171       -16.532014522334133
 9.3519196603335573       -34.361146924979096       -21.491618879034373
 11.689899575416945       -20.044002372904473       -13.225611617867308
 11.689899575416945       -22.907431283319397       -18.185215974567548
 11.689899575416945       -25.770860193734322       -23.144820331267788
 11.689899575416945       -25.770860193734322       -13.225611617867308
 11.689899575416945       -28.634289104149246       -18.185215974567548
 11.689899575416945       -31.497718014564171       -23.144820331267788
 11.689899575416945       -31.497718014564171       -13.225611617867308
 11.689899575416945       -34.361146924979096       -18.185215974567548
 11.689899575416945       -37.224575835394020       -23.144820331267788
 14.027879490500336       -22.907431283319397       -14.878813070100723
 14.027879490500336       -25.770860193734322       -19.838417426800962
 14.027879490500336       -28.634289104149246       -24.798021783501202
 14.027879490500336       -28.634289104149246       -14.878813070100723
 14.027879490500336       -31.497718014564171       -19.838417426800962
 14.027879490500336       -34.361146924979096       -24.798021783501202
 14.027879490500336       -34.361146924979096       -14.878813070100723
 14.027879490500336       -37.224575835394020       -19.838417426800962
 14.027879490500336       -40.088004745808945       -24.798021783501202
 16.365859405583723       -25.770860193734322       -16.532014522334137
 16.365859405583723       -28.634289104149246       -21.491618879034377
 16.365859405583723       -31.497718014564171       -26.451223235734616
 16.365859405583723       -31.497718014564171       -16.532014522334137
 16.365859405583723       -34.361146924979096       -21.491618879034377
 16.365859405583723       -37.224575835394020       -26.451223235734616
 16.365859405583723       -37.224575835394020       -16.532014522334137
 16.365859405583723       -40.088004745808945       -21.491618879034377
 16.365859405583723       -42.951433656223870       -26.451223235734616
 2.3379799150833884       -10.022001186452236       -4.1330036305835334
 2.3379799150833880       -12.885430096867161       -9.0926079872837740
 2.3379799150833875       -15.748859007282086       -14.052212343984014
 2.3379799150833880       -15.748859007282086       -4.1330036305835334
 2.3379799150833875       -18.612287917697010       -9.0926079872837740
 2.3379799150833871       -21.475716828111935       -14.052212343984014
 2.3379799150833875       -21.475716828111935       -4.1330036305835334
 2.3379799150833871       -24.339145738526859       -9.0926079872837740
 2.3379799150833867       -27.202574648941784       -14.052212343984014
 4.6759598301667777       -12.885430096867161       -5.7862050828169469
 4.6759598301667769       -15.748859007282086       -10.745809439517187
 4.6759598301667769       -18.612287917697010       -15.705413796217426
 4.6759598301667769       -18.612287917697010       -5.7862050828169469
 4.6759598301667769       -21.475716828111935       -10.745809439517187
 4.6759598301667760       -24.339145738526859       -15.705413796217426
 4.6759598301667769       -24.339145738526859       -5.7862050828169469
 4.6759598301667769       -27.202574648941784       -10.745809439517187
 4.6759598301667760       -30.066003559356709       -15.705413796217426
 7.0139397452501671       -15.748859007282086       -7.4394065350503613
 7.0139397452501662       -18.612287917697010       -12.399010891750601
 7.0139397452501662       -21.475716828111935       -17.358615248450839
 7.0139397452501662       -21.475716828111935       -7.4394065350503613
 7.0139397452501662       -24.339145738526859       -12.399010891750601
 7.0139397452501653       -27.202574648941784       -17.358615248450839
 7.0139397452501662       -27.202574648941784       -7.4394065350503613
 7.0139397452501662       -30.066003559356709       -12.399010891750601
 7.0139397452501653       -32.929432469771633       -17.358615248450839
 9.3519196603335573       -18.612287917697010       -9.0926079872837740
 9.3519196603335573       -21.475716828111935       -14.052212343984014
 9.3519196603335573       -24.339145738526859       -19.011816700684253
 9.3519196603335573       -24.339145738526859       -9.0926079872837740
 9.3519196603335573       -27.202574648941784       -14.052212343984014
 9.3519196603335573       -30.066003559356709       -19.011816700684253
 9.3519196603335573       -30.066003559356709       -9.0926079872837740
 9.3519196603335573       -32.929432469771633       -14.052212343984014
 9.3519196603335573       -35.792861380186558       -19.011816700684253
 11.689899575416945       -21.475716828111935       -10.745809439517188
 11.689899575416945       -24.339145738526859       -15.705413796217428
 11.689899575416945       -27.202574648941784       -20.665018152917668
 11.689899575416945       -27.202574648941784       -10.745809439517188
 11.689899575416945       -30.066003559356709       -15.705413796217428
 11.689899575416945       -32.929432469771633       -20.665018152917668
 11.689899575416945       -32.929432469771633       -10.745809439517188
 11.689899575416945       -35.792861380186558       -15.705413796217428
 11.689899575416945       -38.656290290601483       -20.665018152917668
 14.027879490500336       -24.339145738526859       -12.399010891750603
 14.027879490500336       -27.202574648941784       -17.358615248450842
 14.027879490500336       -30.066003559356709       -22.318219605151082
 14.027879490500336       -30.066003559356709       -12.399010891750603
 14.027879490500336       -32.929432469771633       -17.358615248450842
 14.027879490500336       -35.792861380186558       -22.318219605151082
 14.027879490500336       -35.792861380186558       -12.399010891750603
 14.027879490500336       -38.656290290601483       -17.358615248450842
 14.027879490500336       -41.519719201016407       -22.318219605151082
 16.365859405583723       -27.202574648941784       -14.052212343984017
 16.365859405583723       -30.066003559356709       -19.011816700684257
 16.365859405583723       -32.929432469771633       -23.971421057384497
 16.365859405583723       -32.929432469771633       -14.052212343984017
 16.365859405583723       -35.792861380186558       -19.011816700684257
 16.365859405583723       -38.656290290601483       -23.971421057384497
 16.365859405583723       -38.656290290601483       -14.052212343984017
 16.365859405583723       -41.519719201016407       -19.011816700684257
 16.365859405583723       -44.383148111431332       -23.971421057384497
