Al  O                                   
    1.000000000000000     
    14.4150840000000002    0.0000000000000000    0.0000000000000000
    -7.2075420000000001   12.4838279999999990    0.0000000000000000
     0.0000000000000000    0.0000000000000000   33.7162539999999993
   Al   O 
   108   290
Direct
 -0.0000000000000000 -0.0000000000000000  0.0583463395863826
  0.1108992823608807  0.2221162830465528  0.0294986242138610
  0.1109093153829144  0.2223976915562204  0.1214724741837990
  0.2221813282716902  0.1111711306877793  0.0707228620311945
  0.2220028286889909  0.1109527241644094  0.1791958850379839
 -0.0000000000000000 -0.0000000000000000  0.1335806616293677
 -0.0000000000000000 -0.0000000000000000  0.2443899551064349
  0.1112392846416184  0.2233212881377263  0.1976294568588069
  0.1115657686466491  0.2311753983861531  0.3069170116577353
  0.2230148410410555  0.1108758119334582  0.2523969368524596
  0.2179470855095913  0.1140584025846894  0.3226838941819150
 -0.0000000000000000 -0.0000000000000000  0.3210628930095779
  0.0000543632073567  0.3332985274747966  0.0582906629998488
  0.1111905846598380  0.5555240130884306  0.0294270717942302
  0.1111736489857062  0.5558674888613299  0.1214699604263031
  0.2222015521352751  0.4443912272420156  0.0705378823011195
  0.2225893210718743  0.4444476102819670  0.1794826325511512
  0.0000761213772506  0.3339039995845463  0.1336724889788152
 -0.0013765053665947  0.3362102464198173  0.2445863895765599
  0.1129507767591215  0.5563954641378234  0.1973445906948612
  0.1127163345717883  0.5582560999861333  0.3131654227904218
  0.2226945833418435  0.4480409799629940  0.2564292364136335
  0.2233934102135292  0.4480756897254956  0.3462688629970231
  0.0058129282637879  0.3415460774667304  0.3247094482157411
 -0.0000189113655982  0.6666918541184959  0.0582628399052738
  0.1112166673523396  0.8891007176391196  0.0294986242138610
  0.1114880428399735  0.8890906846170857  0.1214724741837990
  0.2221900084400732  0.7777984478647251  0.0705378823011195
  0.2218586225434252  0.7774106789281257  0.1794826325511512
 -0.0000125923998284  0.6667681782142955  0.1337228828331685
  0.0042815202157109  0.6696693056849027  0.2460617402896668
  0.1120816701627754  0.8887607153583815  0.1976294568588069
  0.1196092964061716  0.8884342313533510  0.3069170116577353
  0.2253467299544829  0.7773054166581561  0.2564292364136335
  0.2246826128452989  0.7766065897864710  0.3462688629970231
  0.0015500500335200  0.6620724495407834  0.3255065363926856
  0.3332441642674399 -0.0000543632073567  0.0582906629998488
  0.4443536903085496  0.2222463172852316  0.0294403520669235
  0.4442927806699395  0.2224002785700401  0.1215364338858017
  0.5555147245894927  0.1110985551300814  0.0705613596234701
  0.5553006730733404  0.1106718100910552  0.1792832203217969
  0.3338278782072959 -0.0000761213772506  0.1336724889788152
  0.3375867517864123  0.0013765053665947  0.2445863895765599
  0.4457674389236960  0.2234976723159480  0.1974723709620168
  0.4480042358183882  0.2216975997241472  0.3082436215531293
  0.5580474991409506  0.1091434213943893  0.2558007494430001
  0.5558464522539649  0.1120893347196026  0.3460162410437571
  0.3357331492029422 -0.0058129282637879  0.3247094482157411
  0.3333081458815041  0.3332892345159062  0.0582628399052738
  0.4444759869115694  0.5556669049047325  0.0294270717942302
  0.4441325111386701  0.5553064934577017  0.1214699604263031
  0.5555841638739143  0.4444852754105074  0.0705613596234701
  0.5553714703510397  0.4446993269266595  0.1792832203217969
  0.3332318217857044  0.3332192293858761  0.1337228828331685
  0.3303306943150978  0.3346122145308086  0.2460617402896668
  0.4436045358621767  0.5565556459546237  0.1973445906948612
  0.4417439000138666  0.5544605679189799  0.3131654227904218
  0.5510962555867637  0.4419525008590494  0.2558007494430001
  0.5562432157989632  0.4441535477460352  0.3460162410437571
  0.3379275504592164  0.3394776004927363  0.3255065363926856
  0.3333333333333357  0.6666666666666643  0.0581845786054112
  0.4443330950952674  0.8888094153401616  0.0294270717942302
  0.4446935065422984  0.8888263510142941  0.1214699604263031
  0.5556087727579843  0.7778099915599269  0.0705378823011195
  0.5555523897180328  0.7781413774565749  0.1794826325511512
  0.3333333333333357  0.6666666666666643  0.1336903350226739
  0.3333333333333357  0.6666666666666643  0.2482327185380025
  0.4434443540453764  0.8870492232408785  0.1973445906948612
  0.4455394320810199  0.8872836654282117  0.3131654227904218
  0.5519590200370061  0.7746532700455167  0.2564292364136335
  0.5519243102745048  0.7753173871547011  0.3462688629970231
  0.3333333333333357  0.6666666666666643  0.3272062032116795
  0.6667107654840940  0.0000189113655982  0.0582628399052738
  0.7777536827147684  0.2221077063566503  0.0294403520669235
  0.7775997214299599  0.2218928354332319  0.1215364338858017
  0.8888288693122207  0.1110098642505783  0.0707228620311945
  0.8890472758355902  0.1110497711912490  0.1791958850379839
  0.6667807706141242  0.0000125923998284  0.1337228828331685
  0.6653877854691912 -0.0042815202157109  0.2460617402896668
  0.7765023276840521  0.2222700999410805  0.1974723709620168
  0.7783024002758528  0.2263069694275736  0.3082436215531293
  0.8891241880665417  0.1121386957742647  0.2523969368524596
  0.8859415974153108  0.1038883495915695  0.3226838941819150
  0.6605223995072631 -0.0015500500335200  0.3255065363926856
  0.6666666666666643  0.3333333333333357  0.0583283604058855
  0.7778922936433492  0.5556463096914508  0.0294403520669235
  0.7781071645667679  0.5557072193300605  0.1215364338858017
  0.8889014448699186  0.4444158361260857  0.0705613596234701
  0.8893281899089449  0.4446285296489600  0.1792832203217969
  0.6666666666666643  0.3333333333333357  0.1339186574070254
  0.6666666666666643  0.3333333333333357  0.2464939049000553
  0.7777299000589194  0.5542325610763038  0.1974723709620168
  0.7736930305724266  0.5519957641816118  0.3082436215531293
  0.8908565786056106  0.4489037444132361  0.2558007494430001
  0.8879106652803972  0.4437567842010369  0.3460162410437571
  0.6666666666666643  0.3333333333333357  0.3275806210343394
  0.6667014725252036  0.6667558357325605  0.0582906629998488
  0.7778837169534473  0.8887833326476603  0.0294986242138610
  0.7776023084437798  0.8885119571600262  0.1214724741837990
  0.8889901357494217  0.7778186717283097  0.0707228620311945
  0.8889502288087510  0.7779971713110091  0.1791958850379839
  0.6660960004154538  0.6661721217927042  0.1336724889788152
  0.6637897535801824  0.6624132482135878  0.2445863895765599
  0.7766787118622740  0.8879183298372245  0.1976294568588069
  0.7688246016138470  0.8803907035938284  0.3069170116577353
  0.8878613042257351  0.7769851589589449  0.2523969368524596
  0.8961116504084304  0.7820529144904086  0.3226838941819150
  0.6584539225332696  0.6642668507970578  0.3247094482157411
  0.1024202487015346  0.0003065452264091  0.0964782941222945
  0.2295358189963037  0.0098291096052437  0.0339428675310228
 -0.0003065452264091  0.1021137034751255  0.0964782941222945
  0.2314931987143171  0.2315016521562778  0.0965761324532940
  0.3235459698872542  0.2197210928026955  0.0338703539303303
  0.1133983839882986  0.1038839924781101  0.0339773449203008
  0.3250203464607496  0.1115193317770474  0.2190603705793911
  0.1107316943223367  0.1210129416606481  0.1578430431645407
  0.2235620307044781  0.2148088513693436  0.2188539283382618
  0.1212339622570055  0.0106835672619722  0.2183941242382054
  0.2131984402762614  0.3238438546130359  0.1582382066530100
  0.0098293523610588  0.2234637518489564  0.1580920127206130
  0.2128696751346979  0.2326674795678174  0.3362665923515553
  0.0042805097444137  0.2381831300238748  0.2790504635348168
  0.1064349049557663  0.3256232584089069  0.3485233193009199
  0.0137026103368151  0.1222727667453631  0.3367761615593097
  0.1052214300549617  0.1043193565980115  0.2785276955345894
  0.2339026202794611 -0.0042805097444137  0.2790504635348168
  0.1025290672270752  0.3338460479218288  0.0964899227391846
  0.2293348992985433  0.3427979144274955  0.0339418784847983
 -0.0000969131332495  0.4354113678359374  0.0966387984878936
  0.2313796877715753  0.5646147576643663  0.0965376926452848
  0.3236185858650655  0.5531682064469314  0.0337478273740861
  0.1134225949569145  0.4370248441763629  0.0337426949979564
  0.3252285916794551  0.4454567647618735  0.2196157558028473
  0.1114693186549068  0.4548290088783521  0.1582241885848629
  0.2237840364684147  0.5489152338565875  0.2204988700150691
  0.1208137976851921  0.3462014193486561  0.2185495311152720
  0.2136426689836787  0.6571510922132007  0.1585027150790890
  0.0100006213712072  0.5567257692499099  0.1581126636323815
  0.2168185257546402  0.5651508197266575  0.3505828750483230
  0.0011575817236894  0.5645342314771875  0.2855124964808002
  0.1058387939761009  0.6552463292712652  0.3508277063864064
  0.0119428109560600  0.4519585435207530  0.3500395925755883
  0.1061755150130337  0.4422292839287703  0.2851872313560256
  0.2328129478893432  0.3421045685444888  0.2816652417520615
  0.1023907841987855  0.6668251861940928  0.0965341054430273
  0.2295499539152055  0.6763814141349346  0.0337478273740861
  0.0000084534419607  0.7685068012856828  0.0965761324532940
  0.2313169806947535  0.8974709327729247  0.0964899227391846
  0.3236025825527808  0.8865774050430856  0.0337426949979564
  0.1134633484622848  0.7706651007014571  0.0339418784847983
  0.3251315307215122  0.7762159635315854  0.2204988700150691
  0.1106450810034421  0.7868015597237388  0.1582382066530100
  0.2253879549967965  0.8791862023148075  0.2185495311152720
  0.1202285064157511  0.6747714083205447  0.2196157558028473
  0.2136340661545652  0.9901706476389414  0.1580920127206130
  0.0102809140049789  0.8892683056776630  0.1578430431645407
  0.2191880201198082  0.8935650950442335  0.3485233193009199
 -0.0009020734569502  0.8947785699450386  0.2785276955345894
  0.1085698230752155  0.9862973896631851  0.3367761615593097
  0.0197974710997870  0.7871303248653022  0.3362665923515553
  0.1092916206551455  0.7671870521106565  0.2816652417520615
  0.2321178488591957  0.6690158745522217  0.2861772753198410
  0.4355082809691869  0.0000969131332495  0.0966387984878936
  0.5628591259810899  0.0095620246193634  0.0337702059925277
  0.3333020370168358  0.1019799591587918  0.0966210229708498
  0.5646119733060462  0.2311741088270577  0.0967600344107916
  0.6570512575235598  0.2200135764127030  0.0337757424812796
  0.4467501926096537  0.1038402613861658  0.0339063256092496
  0.6566084765772309  0.1092801470146106  0.2197795640945984
  0.4437977638279776  0.1200044039813341  0.1584322277303447
  0.5567784621225393  0.2135026994132328  0.2191859878208144
  0.4540021735542439  0.0081385418726556  0.2187806189765161
  0.5464243008315404  0.3237970796576944  0.1584532750915022
  0.3434913625955954  0.2229221156966558  0.1583165070796275
  0.5477962407997877  0.2275726504066554  0.3495994418656021
  0.3371940390272000  0.2331813223781047  0.2803884867752872
  0.4391566524689207  0.3220616553230061  0.3481132730754790
  0.3466534206563480  0.1164519166858413  0.3362888313160240
  0.4416321316685123  0.1009717752496321  0.2819776027288513
  0.5633766497534977 -0.0011575817236894  0.2855124964808002
  0.4357798022891679  0.3335976226864818  0.0964443507361189
  0.5629626522224687  0.3429487424764405  0.0337757424812797
  0.3331748138059072  0.4355655980046855  0.0965341054430273
  0.5645886321640624  0.5644917190308130  0.0966387984878936
  0.6570904021098444  0.5532498073903462  0.0339063256092496
  0.4467032319716061  0.4371408740189102  0.0337702059925277
  0.6567245706240188  0.4432215378774605  0.2191859878208144
  0.4432742307500900  0.4532751854546299  0.1581126636323815
  0.5541367016517441  0.5459978264457557  0.2187806189765161
  0.4526720037707126  0.3433915234227695  0.2197795640945984
  0.5451709911216480  0.6566406431098872  0.1582241885848629
  0.3428489077867992  0.5564919101038033  0.1585027150790890
  0.5480414564792470  0.5599846007686395  0.3500395925755883
  0.3309841254477784  0.5631019743069742  0.2861772753198410
  0.4348491802733421  0.6516680393613080  0.3505828750483230
  0.3447536707287345  0.4505927980381678  0.3508277063864064
  0.4354657685228126  0.4366233502465021  0.2855124964808002
  0.5662174354681579  0.3351449105061733  0.2842405624856664
  0.4353852423356337  0.6667649301072092  0.0965376926452848
  0.5629751558236374  0.6763974174472193  0.0337426949979564
  0.3332350698927909  0.7686203122284246  0.0965376926452848
  0.5644344019953146  0.8976092158012147  0.0965341054430273
  0.6572020855725046  0.8865366515377154  0.0339418784847983
  0.4468317935530686  0.7704500460847946  0.0337478273740861
  0.6537985806513443  0.7746120450032036  0.2185495311152720
  0.4435080898961968  0.7863573310163212  0.1585027150790890
  0.5545432352381264  0.8797714935842491  0.2196157558028473
  0.4510847661434131  0.6748684692784878  0.2204988700150691
  0.5467248145453701  0.9899993786287927  0.1581126636323815
  0.3433593568901129  0.8885306813450932  0.1582241885848629
  0.5494072019618321  0.8941612060238990  0.3508277063864064
  0.3360537689157436  0.8938244849869661  0.2851872313560256
  0.4400153992313604  0.9880571890439399  0.3500395925755883
  0.3483319606386921  0.7831814742453597  0.3505828750483230
  0.4368980256930257  0.7678821511408043  0.2861772753198410
  0.5577707160712301  0.6639462310842564  0.2851872313560256
  0.7684983478437222 -0.0000084534419607  0.0965761324532940
  0.8961160075218897  0.0095140581768560  0.0339773449203008
  0.6664023773135181  0.1021821796026932  0.0964443507361189
  0.8980200408412080  0.2313220778580440  0.0966210229708498
 -0.0098291096052439  0.2197063760577276  0.0339428675310228
  0.7802789071973046  0.1038245437512262  0.0338703539303303
  0.9893164327380276  0.1105500616617008  0.2183941242382054
  0.7770778843033441  0.1205695802322719  0.1583165070796275
  0.8884806682229524  0.2135006813503698  0.2190603705793911
  0.7851911486306560  0.0087528460018021  0.2188539283382618
  0.8799955960186658  0.3237936931799761  0.1584322277303447
  0.6762029203423054  0.2226275545071853  0.1584532750915022
  0.8835480833141587  0.2302018373038390  0.3362888313160240
  0.6648550894938268  0.2310725249619847  0.2842405624856664
  0.7724273495933446  0.3202239237264722  0.3495994418656021
  0.6779383446769935  0.1170953304792469  0.3481132730754790
  0.7668186776218952  0.1040127166490951  0.2803884867752872
  0.8956806434019885  0.0009020734569502  0.2785276955345894
  0.7688258911729421  0.3334378644789882  0.0967600344107916
  0.8961597386138340  0.3429095978901553  0.0339063256092496
  0.6665621355210116  0.4353880266939543  0.0967600344107916
  0.8978178203973068  0.5642201977108323  0.0964443507361189
 -0.0095620246193632  0.5532967680283939  0.0337702059925277
  0.7799864235872973  0.4370373477775312  0.0337757424812796
  0.9918614581273445  0.4458632983482558  0.2187806189765161
  0.7773724454928147  0.4535756991684597  0.1584532750915022
  0.8907198529853891  0.5473279962292872  0.2197795640945984
  0.7864973005867671  0.3432754293759811  0.2191859878208144
  0.8794304197677280  0.6565086374044048  0.1583165070796275
  0.6762063068200240  0.5562022361720226  0.1584322277303447
  0.8829046695207525  0.5608433475310795  0.3481132730754790
  0.6593396435811127  0.5583678683314874  0.2819776027288513
  0.7697981626961611  0.6533465793436520  0.3362888313160240
  0.6797760762735281  0.4522037592002123  0.3495994418656021
  0.7689274750380153  0.4337825645318423  0.2842405624856664
  0.8990282247503681  0.3406603564188874  0.2819776027288513
  0.7686779221419560  0.6666979629831640  0.0966210229708498
  0.8961754562487741  0.6764540301127460  0.0338703539303303
  0.6661539520781716  0.7686830193052466  0.0964899227391846
  0.8978862965248744  0.8975797512984655  0.0964782941222945
 -0.0095140581768560  0.8866016160117011  0.0339773449203008
  0.7802936239422723  0.7704641810036962  0.0339428675310228
  0.9912471539981980  0.7764379692955220  0.2188539283382618
  0.7765362481510434  0.7863659338454346  0.1580920127206130
  0.8894499383382993  0.8787660377429943  0.2183941242382054
  0.7864993186496302  0.6749796535392503  0.2190603705793910
  0.8789870583393519  0.9897190859950210  0.1578430431645407
  0.6761561453869638  0.8893549189965579  0.1582382066530100
  0.8777272332546370  0.8914301769247845  0.3367761615593097
  0.6578954314555115  0.8907083793448543  0.2816652417520615
  0.7673325204321826  0.9802025289002131  0.3362665923515553
  0.6743767415910930  0.7808119798801915  0.3485233193009199
  0.7618168699761255  0.7660973797205389  0.2790504635348168
  0.8959872833509047  0.6628059609728001  0.2803884867752872
 -0.0000000000000000 -0.0000000000000000  0.4453135321095296
 -0.0000000000000000 -0.0000000000000000  0.4837726616363438
 -0.0154203175038456  0.1141425316823401  0.4224852487303010
 -0.0169362434161840  0.1182906014003792  0.4849922862166249
 -0.0298754956212094  0.1963261392849176  0.4204774973681901
 -0.0529383037474035  0.1829299301738778  0.4842874951963021
 -0.0034677642050550  0.3564066828230569  0.4326250552172990
 -0.0073858382513334  0.3560546948896718  0.4699248003025154
  0.0019731724376061  0.5012542327211370  0.4338262678539249
  0.0029015187662237  0.5014275808079041  0.4708466097327371
 -0.0043358546726314  0.6390795287612280  0.4320506415117524
 -0.0064869490889540  0.6372237765095813  0.4706441134705896
 -0.0306809322129087  0.7722745753279284  0.4199383421733393
 -0.0520458238828508  0.7652458837244970  0.4796667300484582
 -0.0233314756978491  0.8641122976437338  0.4141262206283850
 -0.0187083924461300  0.8663827697288340  0.4891068257833110
  0.1295628491861858  0.0154203175038456  0.4224852487303010
  0.1352268448165633  0.0169362434161841  0.4849922862166249
  0.1358877023562664  0.1125562266584174  0.4141262206283850
  0.1336172302711659  0.1149088378250359  0.4891068257833110
  0.1131033597628014  0.2233613343900232  0.4371694707393404
  0.1121552115294382  0.2257090206284237  0.4726298968975629
  0.1099105870533461  0.3473396851123164  0.4369861239759086
  0.1070399445227713  0.3452946167661224  0.4733260991359400
  0.1177813999136155  0.4898863113951191  0.4339267467426956
  0.1206790677373076  0.4880204923436952  0.4702877380065799
  0.1187297306579815  0.6268685058658179  0.4329637369856513
  0.1213920079740510  0.6316286362078836  0.4700852361120306
  0.1102517389642698  0.7620857526555914  0.4361478790370435
  0.1065882425384117  0.7604260850253498  0.4726171769672399
  0.1102579746272218  0.8868966402371986  0.4371694707393404
  0.1135538090989856  0.8878447884705618  0.4726298968975629
  0.2262016349061270  0.0298754956212094  0.4204774973681901
  0.2358682339212813  0.0529383037474035  0.4842874951963021
  0.2429557139384400  0.1277028538114592  0.3761700256436569
  0.2388288914677060  0.1219635445627618  0.5506890485364140
  0.2277254246720714  0.1970444924591627  0.4199383421733393
  0.2347541162755027  0.1827082923926521  0.4796667300484582
  0.2379142473444088  0.3481659863086786  0.4361478790370435
  0.2395739149746497  0.3461621575130615  0.4726171769672399
  0.2412437812841988  0.4834064700184086  0.4283766915486261
  0.2434919589814019  0.4860797130363526  0.4648382079429458
  0.2467615888123389  0.6229704580948939  0.4351175526776802
  0.2461917752110487  0.6225983599272441  0.4718129630351623
  0.2421626887342101  0.7587562187158013  0.4283766915486261
  0.2425877540549504  0.7565080410185983  0.4648382079429458
  0.2374290980589702  0.8900894129466541  0.4369861239759086
  0.2382546722433511  0.8929600554772285  0.4733260991359400
  0.3598744470281118  0.0034677642050550  0.4326250552172990
  0.3634405331410051  0.0073858382513334  0.4699248003025154
  0.3557095500773931  0.1218527501657253  0.4268668845305482
  0.3584352080244443  0.1213287164150516  0.4672398677127880
  0.3663945904228104  0.2460638858480748  0.4311758870355721
  0.3671771829664197  0.2463551190390393  0.4703722447823718
  0.3609204712387717  0.3565846165661406  0.4320506415117524
  0.3627762234904188  0.3562892744014647  0.4706441134705896
  0.3731314941341820  0.4918612247921633  0.4329637369856513
  0.3683713637921163  0.4897633717661672  0.4700852361120306
  0.3770295419051058  0.6237911307174447  0.4351175526776802
  0.3774016400727562  0.6235934152838047  0.4718129630351623
  0.3762088692825553  0.7532384111876612  0.4351175526776802
  0.3764065847161950  0.7538082247889513  0.4718129630351623
  0.3721049114815038  0.8822186000863844  0.4339267467426956
  0.3673414246063877  0.8793209322626924  0.4702877380065799
  0.4992810602835308 -0.0019731724376061  0.4338262678539249
  0.4985260620416804 -0.0029015187662237  0.4708466097327371
  0.4947633188664542  0.1233959271896468  0.4305929768338775
  0.4924996152025067  0.1214795803590956  0.4674659517220301
  0.4941932546239589  0.2465124236047198  0.4348820745269483
  0.4904728544480090  0.2429052351769579  0.4714376618565815
  0.5001130343695831  0.3754689101583902  0.4339368841736858
  0.4998777868329191  0.3763451532723325  0.4705435647494072
  0.4987457672788633  0.5007189397164694  0.4338262678539249
  0.4985724191920961  0.5014739379583195  0.4708466097327371
  0.5101136886048809  0.6278950885184967  0.4339267467426956
  0.5119795076563047  0.6326585753936123  0.4702877380065799
  0.5165935299815911  0.7578373112657899  0.4283766915486261
  0.5139202869636478  0.7574122459450496  0.4648382079429458
  0.5081387752078367  0.8812702693420184  0.4329637369856513
  0.5102366282338331  0.8786079920259491  0.4700852361120306
  0.6434153834338595  0.0043358546726313  0.4320506415117524
  0.6437107255985353  0.0064869490889540  0.4706441134705896
  0.6245310898416099  0.1246441242111927  0.4339368841736858
  0.6236548467276675  0.1235326335605866  0.4705435647494072
  0.6253728969100537  0.2509609508941723  0.4364792624786011
  0.6225251268891432  0.2468293071371335  0.4727221474213354
  0.6255880539841183  0.3746271030899456  0.4364792624786011
  0.6243041802479898  0.3774748731108563  0.4727221474213354
  0.6286326083231926  0.5052366811335457  0.4305929768338775
  0.6289799651565893  0.5075003847974937  0.4674659517220301
  0.6435933171769431  0.6401255529718882  0.4326250552172990
  0.6439453051103284  0.6365594668589948  0.4699248003025154
  0.6526603148876834  0.7625709019410294  0.4369861239759086
  0.6547053832338776  0.7617453277566486  0.4733260991359400
  0.6518340136913213  0.8897482610357301  0.4361478790370435
  0.6538378424869388  0.8934117574615884  0.4726171769672399
  0.8029555075408370  0.0306809322129087  0.4199383421733393
  0.8172917076073477  0.0520458238828508  0.4796667300484582
  0.7539361141519249  0.1203307045747356  0.4311758870355721
  0.7536448809609605  0.1208220639273805  0.4703722447823718
  0.7534875763952797  0.2476808310192389  0.4348820745269483
  0.7570947648230423  0.2475676192710511  0.4714376618565815
  0.7490390491058276  0.3744119460158819  0.4364792624786011
  0.7531706928628664  0.3756958197520101  0.4727221474213354
  0.7523191689807610  0.5058067453760411  0.4348820745269483
  0.7524323807289489  0.5095271455519911  0.4714376618565815
  0.7661432000883321  0.6442904499226068  0.4268668845305482
  0.7628935083906074  0.6415647919755555  0.4672398677127880
  0.8036738607150825  0.7737983650938732  0.4204774973681901
  0.8170700698261222  0.7641317660787188  0.4842874951963021
  0.7766386656099770  0.8897420253727782  0.4371694707393404
  0.7742909793715761  0.8864461909010146  0.4726298968975629
  0.8874437733415826  0.0233314756978490  0.4141262206283850
  0.8850911621749644  0.0187083924461300  0.4891068257833110
  0.8722971461885408  0.1152528601269809  0.3761700256436569
  0.8780364554372383  0.1168653469049441  0.5506890485364140
  0.8781472498342744  0.2338567999116678  0.4268668845305482
  0.8786712835849482  0.2371064916093926  0.4672398677127880
  0.8766040728103530  0.3713673916768076  0.4305929768338775
  0.8785204196409043  0.3710200348434111  0.4674659517220301
  0.8753558757888074  0.4998869656304171  0.4339368841736858
  0.8764673664394135  0.5001222131670813  0.4705435647494072
  0.8796692954252642  0.6336054095771901  0.4311758870355721
  0.8791779360726196  0.6328228170335805  0.4703722447823718
  0.8847471398730192  0.7570442860615602  0.3761700256436569
  0.8831346530950556  0.7611711085322941  0.5506890485364140
  0.8858574683176597  0.8704371508138143  0.4224852487303010
  0.8817093985996209  0.8647731551834371  0.4849922862166249
 
  0.00000000E+00  0.00000000E+00  0.00000000E+00
  0.00000000E+00  0.00000000E+00  0.00000000E+00
  0.00000000E+00  0.00000000E+00  0.00000000E+00
  0.00000000E+00  0.00000000E+00  0.00000000E+00
  0.00000000E+00  0.00000000E+00  0.00000000E+00
  0.00000000E+00  0.00000000E+00  0.00000000E+00
  0.00000000E+00  0.00000000E+00  0.00000000E+00
  0.00000000E+00  0.00000000E+00  0.00000000E+00
  0.00000000E+00  0.00000000E+00  0.00000000E+00
  0.00000000E+00  0.00000000E+00  0.00000000E+00
  0.00000000E+00  0.00000000E+00  0.00000000E+00
  0.00000000E+00  0.00000000E+00  0.00000000E+00
  0.00000000E+00  0.00000000E+00  0.00000000E+00
  0.00000000E+00  0.00000000E+00  0.00000000E+00
  0.00000000E+00  0.00000000E+00  0.00000000E+00
  0.00000000E+00  0.00000000E+00  0.00000000E+00
  0.00000000E+00  0.00000000E+00  0.00000000E+00
  0.00000000E+00  0.00000000E+00  0.00000000E+00
  0.00000000E+00  0.00000000E+00  0.00000000E+00
  0.00000000E+00  0.00000000E+00  0.00000000E+00
  0.00000000E+00  0.00000000E+00  0.00000000E+00
  0.00000000E+00  0.00000000E+00  0.00000000E+00
  0.00000000E+00  0.00000000E+00  0.00000000E+00
  0.00000000E+00  0.00000000E+00  0.00000000E+00
  0.00000000E+00  0.00000000E+00  0.00000000E+00
  0.00000000E+00  0.00000000E+00  0.00000000E+00
  0.00000000E+00  0.00000000E+00  0.00000000E+00
  0.00000000E+00  0.00000000E+00  0.00000000E+00
  0.00000000E+00  0.00000000E+00  0.00000000E+00
  0.00000000E+00  0.00000000E+00  0.00000000E+00
  0.00000000E+00  0.00000000E+00  0.00000000E+00
  0.00000000E+00  0.00000000E+00  0.00000000E+00
  0.00000000E+00  0.00000000E+00  0.00000000E+00
  0.00000000E+00  0.00000000E+00  0.00000000E+00
  0.00000000E+00  0.00000000E+00  0.00000000E+00
  0.00000000E+00  0.00000000E+00  0.00000000E+00
  0.00000000E+00  0.00000000E+00  0.00000000E+00
  0.00000000E+00  0.00000000E+00  0.00000000E+00
  0.00000000E+00  0.00000000E+00  0.00000000E+00
  0.00000000E+00  0.00000000E+00  0.00000000E+00
  0.00000000E+00  0.00000000E+00  0.00000000E+00
  0.00000000E+00  0.00000000E+00  0.00000000E+00
  0.00000000E+00  0.00000000E+00  0.00000000E+00
  0.00000000E+00  0.00000000E+00  0.00000000E+00
  0.00000000E+00  0.00000000E+00  0.00000000E+00
  0.00000000E+00  0.00000000E+00  0.00000000E+00
  0.00000000E+00  0.00000000E+00  0.00000000E+00
  0.00000000E+00  0.00000000E+00  0.00000000E+00
  0.00000000E+00  0.00000000E+00  0.00000000E+00
  0.00000000E+00  0.00000000E+00  0.00000000E+00
  0.00000000E+00  0.00000000E+00  0.00000000E+00
  0.00000000E+00  0.00000000E+00  0.00000000E+00
  0.00000000E+00  0.00000000E+00  0.00000000E+00
  0.00000000E+00  0.00000000E+00  0.00000000E+00
  0.00000000E+00  0.00000000E+00  0.00000000E+00
  0.00000000E+00  0.00000000E+00  0.00000000E+00
  0.00000000E+00  0.00000000E+00  0.00000000E+00
  0.00000000E+00  0.00000000E+00  0.00000000E+00
  0.00000000E+00  0.00000000E+00  0.00000000E+00
  0.00000000E+00  0.00000000E+00  0.00000000E+00
  0.00000000E+00  0.00000000E+00  0.00000000E+00
  0.00000000E+00  0.00000000E+00  0.00000000E+00
  0.00000000E+00  0.00000000E+00  0.00000000E+00
  0.00000000E+00  0.00000000E+00  0.00000000E+00
  0.00000000E+00  0.00000000E+00  0.00000000E+00
  0.00000000E+00  0.00000000E+00  0.00000000E+00
  0.00000000E+00  0.00000000E+00  0.00000000E+00
  0.00000000E+00  0.00000000E+00  0.00000000E+00
  0.00000000E+00  0.00000000E+00  0.00000000E+00
  0.00000000E+00  0.00000000E+00  0.00000000E+00
  0.00000000E+00  0.00000000E+00  0.00000000E+00
  0.00000000E+00  0.00000000E+00  0.00000000E+00
  0.00000000E+00  0.00000000E+00  0.00000000E+00
  0.00000000E+00  0.00000000E+00  0.00000000E+00
  0.00000000E+00  0.00000000E+00  0.00000000E+00
  0.00000000E+00  0.00000000E+00  0.00000000E+00
  0.00000000E+00  0.00000000E+00  0.00000000E+00
  0.00000000E+00  0.00000000E+00  0.00000000E+00
  0.00000000E+00  0.00000000E+00  0.00000000E+00
  0.00000000E+00  0.00000000E+00  0.00000000E+00
  0.00000000E+00  0.00000000E+00  0.00000000E+00
  0.00000000E+00  0.00000000E+00  0.00000000E+00
  0.00000000E+00  0.00000000E+00  0.00000000E+00
  0.00000000E+00  0.00000000E+00  0.00000000E+00
  0.00000000E+00  0.00000000E+00  0.00000000E+00
  0.00000000E+00  0.00000000E+00  0.00000000E+00
  0.00000000E+00  0.00000000E+00  0.00000000E+00
  0.00000000E+00  0.00000000E+00  0.00000000E+00
  0.00000000E+00  0.00000000E+00  0.00000000E+00
  0.00000000E+00  0.00000000E+00  0.00000000E+00
  0.00000000E+00  0.00000000E+00  0.00000000E+00
  0.00000000E+00  0.00000000E+00  0.00000000E+00
  0.00000000E+00  0.00000000E+00  0.00000000E+00
  0.00000000E+00  0.00000000E+00  0.00000000E+00
  0.00000000E+00  0.00000000E+00  0.00000000E+00
  0.00000000E+00  0.00000000E+00  0.00000000E+00
  0.00000000E+00  0.00000000E+00  0.00000000E+00
  0.00000000E+00  0.00000000E+00  0.00000000E+00
  0.00000000E+00  0.00000000E+00  0.00000000E+00
  0.00000000E+00  0.00000000E+00  0.00000000E+00
  0.00000000E+00  0.00000000E+00  0.00000000E+00
  0.00000000E+00  0.00000000E+00  0.00000000E+00
  0.00000000E+00  0.00000000E+00  0.00000000E+00
  0.00000000E+00  0.00000000E+00  0.00000000E+00
  0.00000000E+00  0.00000000E+00  0.00000000E+00
  0.00000000E+00  0.00000000E+00  0.00000000E+00
  0.00000000E+00  0.00000000E+00  0.00000000E+00
  0.00000000E+00  0.00000000E+00  0.00000000E+00
  0.00000000E+00  0.00000000E+00  0.00000000E+00
  0.00000000E+00  0.00000000E+00  0.00000000E+00