New structure                           
    1.000000000000000     
    16.1980000000000004    0.0000000000000000    0.0000000000000000
     0.0000000000000000   16.1980000000000004    0.0000000000000000
     0.0000000000000000    0.0000000000000000   16.1980000000000004
   Al   O 
   256     1
Direct
 -0.0221395121524355  0.0000000000000000 -0.0000000000000000
 -0.0011225490464262  0.1268242809393145  0.1268242809393145
  0.1253514460451255  0.0000000000000000  0.1257223297702075
  0.1253514460451255  0.1257223297702075 -0.0000000000000000
  0.0003964610698955  0.0000000000000000  0.2495702189650923
  0.0002161145611148  0.1247729098549265  0.3749131506225808
  0.1247983924696111  0.0000000000000000  0.3743192007450826
  0.1252573954923921  0.1250700878446044  0.2503889118406847
  0.0004586604661965  0.0000000000000000  0.5000000000000000
  0.0002161145611148  0.1247729098549265  0.6250868493774195
  0.1247983924696111  0.0000000000000000  0.6256807992549180
  0.1249078968928180  0.1246657535781985  0.5000000000000000
  0.0003964610698955  0.0000000000000000  0.7504297810349078
 -0.0011225490464262  0.1268242809393145  0.8731757190606860
  0.1253514460451255  0.0000000000000000  0.8742776702297923
  0.1252573954923921  0.1250700878446044  0.7496110881593157
  0.0003964610698955  0.2495702189650923 -0.0000000000000000
  0.0002161145611148  0.3749131506225808  0.1247729098549265
  0.1252573954923921  0.2503889118406847  0.1250700878446044
  0.1247983924696111  0.3743192007450826 -0.0000000000000000
  0.0004721362349134  0.2499984263134867  0.2499984263134867
  0.0001134488063458  0.3750484932933468  0.3750484932933468
  0.1248794085713412  0.2497115682357242  0.3748655029258496
  0.1248794085713412  0.3748655029258496  0.2497115682357242
  0.0004823341350214  0.2497842263549768  0.5000000000000000
  0.0001134488063458  0.3750484932933468  0.6249515067066529
  0.1248794085713412  0.2497115682357242  0.6251344970741500
  0.1251933613926403  0.3751681260236904  0.5000000000000000
  0.0004721362349134  0.2499984263134867  0.7500015736865132
  0.0002161145611148  0.3749131506225808  0.8752270901450738
  0.1252573954923921  0.2503889118406847  0.8749299121553956
  0.1248794085713412  0.3748655029258496  0.7502884317642758
  0.0004586604661965  0.5000000000000000 -0.0000000000000000
  0.0002161145611148  0.6250868493774195  0.1247729098549265
  0.1249078968928180  0.5000000000000000  0.1246657535781985
  0.1247983924696111  0.6256807992549180 -0.0000000000000000
  0.0004823341350214  0.5000000000000000  0.2497842263549768
  0.0001134488063458  0.6249515067066529  0.3750484932933468
  0.1251933613926403  0.5000000000000000  0.3751681260236904
  0.1248794085713412  0.6251344970741500  0.2497115682357242
 -0.0000070298473004  0.5000000000000000  0.5000000000000000
  0.0001134488063458  0.6249515067066529  0.6249515067066529
  0.1251933613926403  0.5000000000000000  0.6248318739763097
  0.1251933613926403  0.6248318739763097  0.5000000000000000
  0.0004823341350214  0.5000000000000000  0.7502157736450230
  0.0002161145611148  0.6250868493774195  0.8752270901450738
  0.1249078968928180  0.5000000000000000  0.8753342464218015
  0.1248794085713412  0.6251344970741500  0.7502884317642758
  0.0003964610698955  0.7504297810349078 -0.0000000000000000
 -0.0011225490464262  0.8731757190606860  0.1268242809393145
  0.1252573954923921  0.7496110881593157  0.1250700878446044
  0.1253514460451255  0.8742776702297923 -0.0000000000000000
  0.0004721362349134  0.7500015736865132  0.2499984263134867
  0.0002161145611148  0.8752270901450738  0.3749131506225808
  0.1248794085713412  0.7502884317642758  0.3748655029258496
  0.1252573954923921  0.8749299121553956  0.2503889118406847
  0.0004823341350214  0.7502157736450230  0.5000000000000000
  0.0002161145611148  0.8752270901450738  0.6250868493774195
  0.1248794085713412  0.7502884317642758  0.6251344970741500
  0.1249078968928180  0.8753342464218015  0.5000000000000000
  0.0004721362349134  0.7500015736865132  0.7500015736865132
 -0.0011225490464262  0.8731757190606860  0.8731757190606860
  0.1252573954923921  0.7496110881593157  0.8749299121553956
  0.1252573954923921  0.8749299121553956  0.7496110881593157
  0.2630371464471775  0.0000000000000000 -0.0000000000000000
  0.2484837963430242  0.1227731185888760  0.1227731185888760
  0.3777852343851889  0.0000000000000000  0.1263711702092127
  0.3777852343851889  0.1263711702092127 -0.0000000000000000
  0.2502721690264749  0.0000000000000000  0.2503497270397272
  0.2497307170051319  0.1247752223480154  0.3751485989632204
  0.3746250931618919  0.0000000000000000  0.3748214121694076
  0.3746417767861054  0.1251590113467413  0.2495725136432334
  0.2496729708990759  0.0000000000000000  0.5000000000000000
  0.2497307170051319  0.1247752223480154  0.6248514010367796
  0.3746250931618919  0.0000000000000000  0.6251785878305924
  0.3744864421630587  0.1249843935662063  0.5000000000000000
  0.2502721690264749  0.0000000000000000  0.7496502729602730
  0.2484837963430242  0.1227731185888760  0.8772268814111236
  0.3777852343851889  0.0000000000000000  0.8736288297907872
  0.3746417767861054  0.1251590113467413  0.7504274863567664
  0.2502721690264749  0.2503497270397272 -0.0000000000000000
  0.2497307170051319  0.3751485989632204  0.1247752223480154
  0.3746417767861054  0.2495725136432334  0.1251590113467413
  0.3746250931618919  0.3748214121694076 -0.0000000000000000
  0.2498588215867410  0.2493748353571310  0.2493748353571310
  0.2497729956255897  0.3747924891105339  0.3747924891105339
  0.3746001806323435  0.2500035683360708  0.3750754367038612
  0.3746001806323435  0.3750754367038612  0.2500035683360708
  0.2496288940034573  0.2497026668773596  0.5000000000000000
  0.2497729956255897  0.3747924891105339  0.6252075108894664
  0.3746001806323435  0.2500035683360708  0.6249245632961382
  0.3744502627348349  0.3748772996772060  0.5000000000000000
  0.2498588215867410  0.2493748353571310  0.7506251646428692
  0.2497307170051319  0.3751485989632204  0.8752247776519850
  0.3746417767861054  0.2495725136432334  0.8748409886532589
  0.3746001806323435  0.3750754367038612  0.7499964316639293
  0.2496729708990759  0.5000000000000000 -0.0000000000000000
  0.2497307170051319  0.6248514010367796  0.1247752223480154
  0.3744864421630587  0.5000000000000000  0.1249843935662063
  0.3746250931618919  0.6251785878305924 -0.0000000000000000
  0.2496288940034573  0.5000000000000000  0.2497026668773596
  0.2497729956255897  0.6252075108894664  0.3747924891105339
  0.3744502627348349  0.5000000000000000  0.3748772996772060
  0.3746001806323435  0.6249245632961382  0.2500035683360708
  0.2503041674247402  0.5000000000000000  0.5000000000000000
  0.2497729956255897  0.6252075108894664  0.6252075108894664
  0.3744502627348349  0.5000000000000000  0.6251227003227938
  0.3744502627348349  0.6251227003227938  0.5000000000000000
  0.2496288940034573  0.5000000000000000  0.7502973331226402
  0.2497307170051319  0.6248514010367796  0.8752247776519850
  0.3744864421630587  0.5000000000000000  0.8750156064337939
  0.3746001806323435  0.6249245632961382  0.7499964316639293
  0.2502721690264749  0.7496502729602730 -0.0000000000000000
  0.2484837963430242  0.8772268814111236  0.1227731185888760
  0.3746417767861054  0.7504274863567664  0.1251590113467413
  0.3777852343851889  0.8736288297907872 -0.0000000000000000
  0.2498588215867410  0.7506251646428692  0.2493748353571310
  0.2497307170051319  0.8752247776519850  0.3751485989632204
  0.3746001806323435  0.7499964316639293  0.3750754367038612
  0.3746417767861054  0.8748409886532589  0.2495725136432334
  0.2496288940034573  0.7502973331226402  0.5000000000000000
  0.2497307170051319  0.8752247776519850  0.6248514010367796
  0.3746001806323435  0.7499964316639293  0.6249245632961382
  0.3744864421630587  0.8750156064337939  0.5000000000000000
  0.2498588215867410  0.7506251646428692  0.7506251646428692
  0.2484837963430242  0.8772268814111236  0.8772268814111236
  0.3746417767861054  0.7504274863567664  0.8748409886532589
  0.3746417767861054  0.8748409886532589  0.7504274863567664
  0.5012213632680649  0.0000000000000000 -0.0000000000000000
  0.5007531113536415  0.1251510682275417  0.1251510682275417
  0.6256230351211692  0.0000000000000000  0.1250283310753275
  0.6256230351211692  0.1250283310753275 -0.0000000000000000
  0.5003698556356977  0.0000000000000000  0.2504980802615498
  0.4994762414124861  0.1251179491983221  0.3748339216452478
  0.6248529414079872  0.0000000000000000  0.3755339559275456
  0.6247747220985904  0.1252022527484891  0.2501721244163329
  0.4996477920912922  0.0000000000000000  0.5000000000000000
  0.4994762414124861  0.1251179491983221  0.6251660783547525
  0.6248529414079872  0.0000000000000000  0.6244660440724544
  0.6248959524087240  0.1251923024798759  0.5000000000000000
  0.5003698556356977  0.0000000000000000  0.7495019197384498
  0.5007531113536415  0.1251510682275417  0.8748489317724583
  0.6256230351211692  0.0000000000000000  0.8749716689246727
  0.6247747220985904  0.1252022527484891  0.7498278755836671
  0.5003698556356977  0.2504980802615498 -0.0000000000000000
  0.4994762414124861  0.3748339216452478  0.1251179491983221
  0.6247747220985904  0.2501721244163329  0.1252022527484891
  0.6248529414079872  0.3755339559275456 -0.0000000000000000
  0.4997805760826161  0.2501345635950218  0.2501345635950218
  0.4997226189709452  0.3750837902841953  0.3750837902841953
  0.6246976501066709  0.2500428223487929  0.3750546755630665
  0.6246976501066709  0.3750546755630665  0.2500428223487929
  0.4996655047084366  0.2497291173250167  0.5000000000000000
  0.4997226189709452  0.3750837902841953  0.6249162097158046
  0.6246976501066709  0.2500428223487929  0.6249453244369332
  0.6248192663506955  0.3750031006684413  0.5000000000000000
  0.4997805760826161  0.2501345635950218  0.7498654364049778
  0.4994762414124861  0.3748339216452478  0.8748820508016775
  0.6247747220985904  0.2501721244163329  0.8747977472515109
  0.6246976501066709  0.3750546755630665  0.7499571776512071
  0.4996477920912922  0.5000000000000000 -0.0000000000000000
  0.4994762414124861  0.6251660783547525  0.1251179491983221
  0.6248959524087240  0.5000000000000000  0.1251923024798759
  0.6248529414079872  0.6244660440724544 -0.0000000000000000
  0.4996655047084366  0.5000000000000000  0.2497291173250167
  0.4997226189709452  0.6249162097158046  0.3750837902841953
  0.6248192663506955  0.5000000000000000  0.3750031006684413
  0.6246976501066709  0.6249453244369332  0.2500428223487929
  0.4997223886034843  0.5000000000000000  0.5000000000000000
  0.4997226189709452  0.6249162097158046  0.6249162097158046
  0.6248192663506955  0.5000000000000000  0.6249968993315586
  0.6248192663506955  0.6249968993315586  0.5000000000000000
  0.4996655047084366  0.5000000000000000  0.7502708826749834
  0.4994762414124861  0.6251660783547525  0.8748820508016775
  0.6248959524087240  0.5000000000000000  0.8748076975201240
  0.6246976501066709  0.6249453244369332  0.7499571776512071
  0.5003698556356977  0.7495019197384498 -0.0000000000000000
  0.5007531113536415  0.8748489317724583  0.1251510682275417
  0.6247747220985904  0.7498278755836671  0.1252022527484891
  0.6256230351211692  0.8749716689246727 -0.0000000000000000
  0.4997805760826161  0.7498654364049778  0.2501345635950218
  0.4994762414124861  0.8748820508016775  0.3748339216452478
  0.6246976501066709  0.7499571776512071  0.3750546755630665
  0.6247747220985904  0.8747977472515109  0.2501721244163329
  0.4996655047084366  0.7502708826749834  0.5000000000000000
  0.4994762414124861  0.8748820508016775  0.6251660783547525
  0.6246976501066709  0.7499571776512071  0.6249453244369332
  0.6248959524087240  0.8748076975201240  0.5000000000000000
  0.4997805760826161  0.7498654364049778  0.7498654364049778
  0.5007531113536415  0.8748489317724583  0.8748489317724583
  0.6247747220985904  0.7498278755836671  0.8747977472515109
  0.6247747220985904  0.8747977472515109  0.7498278755836671
  0.7512415462433502  0.0000000000000000 -0.0000000000000000
  0.7495491645568028  0.1252027843658611  0.1252027843658611
  0.8723865109747759  0.0000000000000000  0.1285535197326663
  0.8723865109747759  0.1285535197326663 -0.0000000000000000
  0.7487921152841713  0.0000000000000000  0.2512270209267373
  0.7498267800366694  0.1251972558567510  0.3754172878121175
  0.8753204825143139  0.0000000000000000  0.3751114120412655
  0.8750279428129391  0.1249618446397066  0.2505276918132027
  0.7501805056822078  0.0000000000000000  0.5000000000000000
  0.7498267800366694  0.1251972558567510  0.6245827121878829
  0.8753204825143139  0.0000000000000000  0.6248885879587338
  0.8752789225000025  0.1250185633647502  0.5000000000000000
  0.7487921152841713  0.0000000000000000  0.7487729790732626
  0.7495491645568028  0.1252027843658611  0.8747972156341390
  0.8723865109747759  0.0000000000000000  0.8714464802673336
  0.8750279428129391  0.1249618446397066  0.7494723081867972
  0.7487921152841713  0.2512270209267373 -0.0000000000000000
  0.7498267800366694  0.3754172878121175  0.1251972558567510
  0.8750279428129391  0.2505276918132027  0.1249618446397066
  0.8753204825143139  0.3751114120412655 -0.0000000000000000
  0.7501974961598448  0.2499889463542322  0.2499889463542322
  0.7501261756358492  0.3750418439951733  0.3750418439951733
  0.8752661548063200  0.2500704327960033  0.3751156229193814
  0.8752661548063200  0.3751156229193814  0.2500704327960033
  0.7501542132269162  0.2502324518212525  0.5000000000000000
  0.7501261756358492  0.3750418439951733  0.6249581560048271
  0.8752661548063200  0.2500704327960033  0.6248843770806183
  0.8752880653486785  0.3750445127845211  0.5000000000000000
  0.7501974961598448  0.2499889463542322  0.7500110536457679
  0.7498267800366694  0.3754172878121175  0.8748027441432492
  0.8750279428129391  0.2505276918132027  0.8750381553602934
  0.8752661548063200  0.3751156229193814  0.7499295672039966
  0.7501805056822078  0.5000000000000000 -0.0000000000000000
  0.7498267800366694  0.6245827121878829  0.1251972558567510
  0.8752789225000025  0.5000000000000000  0.1250185633647502
  0.8753204825143139  0.6248885879587338 -0.0000000000000000
  0.7501542132269162  0.5000000000000000  0.2502324518212525
  0.7501261756358492  0.6249581560048271  0.3750418439951733
  0.8752880653486785  0.5000000000000000  0.3750445127845211
  0.8752661548063200  0.6248843770806183  0.2500704327960033
  0.7502407621976431  0.5000000000000000  0.5000000000000000
  0.7501261756358492  0.6249581560048271  0.6249581560048271
  0.8752880653486785  0.5000000000000000  0.6249554872154789
  0.8752880653486785  0.6249554872154789  0.5000000000000000
  0.7501542132269162  0.5000000000000000  0.7497675481787474
  0.7498267800366694  0.6245827121878829  0.8748027441432492
  0.8752789225000025  0.5000000000000000  0.8749814366352499
  0.8752661548063200  0.6248843770806183  0.7499295672039966
  0.7487921152841713  0.7487729790732626 -0.0000000000000000
  0.7495491645568028  0.8747972156341390  0.1252027843658611
  0.8750279428129391  0.7494723081867972  0.1249618446397066
  0.8723865109747759  0.8714464802673336 -0.0000000000000000
  0.7501974961598448  0.7500110536457679  0.2499889463542322
  0.7498267800366694  0.8748027441432492  0.3754172878121175
  0.8752661548063200  0.7499295672039966  0.3751156229193814
  0.8750279428129391  0.8750381553602934  0.2505276918132027
  0.7501542132269162  0.7497675481787474  0.5000000000000000
  0.7498267800366694  0.8748027441432492  0.6245827121878829
  0.8752661548063200  0.7499295672039966  0.6248843770806183
  0.8752789225000025  0.8749814366352499  0.5000000000000000
  0.7501974961598448  0.7500110536457679  0.7500110536457679
  0.7495491645568028  0.8747972156341390  0.8747972156341390
  0.8750279428129391  0.7494723081867972  0.8750381553602934
  0.8750279428129391  0.8750381553602934  0.7494723081867972
  0.0916680538749921  0.0000000000000000 -0.0000000000000000
 
  0.00000000E+00  0.00000000E+00  0.00000000E+00
  0.00000000E+00  0.00000000E+00  0.00000000E+00
  0.00000000E+00  0.00000000E+00  0.00000000E+00
  0.00000000E+00  0.00000000E+00  0.00000000E+00
  0.00000000E+00  0.00000000E+00  0.00000000E+00
  0.00000000E+00  0.00000000E+00  0.00000000E+00
  0.00000000E+00  0.00000000E+00  0.00000000E+00
  0.00000000E+00  0.00000000E+00  0.00000000E+00
  0.00000000E+00  0.00000000E+00  0.00000000E+00
  0.00000000E+00  0.00000000E+00  0.00000000E+00
  0.00000000E+00  0.00000000E+00  0.00000000E+00
  0.00000000E+00  0.00000000E+00  0.00000000E+00
  0.00000000E+00  0.00000000E+00  0.00000000E+00
  0.00000000E+00  0.00000000E+00  0.00000000E+00
  0.00000000E+00  0.00000000E+00  0.00000000E+00
  0.00000000E+00  0.00000000E+00  0.00000000E+00
  0.00000000E+00  0.00000000E+00  0.00000000E+00
  0.00000000E+00  0.00000000E+00  0.00000000E+00
  0.00000000E+00  0.00000000E+00  0.00000000E+00
  0.00000000E+00  0.00000000E+00  0.00000000E+00
  0.00000000E+00  0.00000000E+00  0.00000000E+00
  0.00000000E+00  0.00000000E+00  0.00000000E+00
  0.00000000E+00  0.00000000E+00  0.00000000E+00
  0.00000000E+00  0.00000000E+00  0.00000000E+00
  0.00000000E+00  0.00000000E+00  0.00000000E+00
  0.00000000E+00  0.00000000E+00  0.00000000E+00
  0.00000000E+00  0.00000000E+00  0.00000000E+00
  0.00000000E+00  0.00000000E+00  0.00000000E+00
  0.00000000E+00  0.00000000E+00  0.00000000E+00
  0.00000000E+00  0.00000000E+00  0.00000000E+00
  0.00000000E+00  0.00000000E+00  0.00000000E+00
  0.00000000E+00  0.00000000E+00  0.00000000E+00
  0.00000000E+00  0.00000000E+00  0.00000000E+00
  0.00000000E+00  0.00000000E+00  0.00000000E+00
  0.00000000E+00  0.00000000E+00  0.00000000E+00
  0.00000000E+00  0.00000000E+00  0.00000000E+00
  0.00000000E+00  0.00000000E+00  0.00000000E+00
  0.00000000E+00  0.00000000E+00  0.00000000E+00
  0.00000000E+00  0.00000000E+00  0.00000000E+00
  0.00000000E+00  0.00000000E+00  0.00000000E+00
  0.00000000E+00  0.00000000E+00  0.00000000E+00
  0.00000000E+00  0.00000000E+00  0.00000000E+00
  0.00000000E+00  0.00000000E+00  0.00000000E+00
  0.00000000E+00  0.00000000E+00  0.00000000E+00
  0.00000000E+00  0.00000000E+00  0.00000000E+00
  0.00000000E+00  0.00000000E+00  0.00000000E+00
  0.00000000E+00  0.00000000E+00  0.00000000E+00
  0.00000000E+00  0.00000000E+00  0.00000000E+00
  0.00000000E+00  0.00000000E+00  0.00000000E+00
  0.00000000E+00  0.00000000E+00  0.00000000E+00
  0.00000000E+00  0.00000000E+00  0.00000000E+00
  0.00000000E+00  0.00000000E+00  0.00000000E+00
  0.00000000E+00  0.00000000E+00  0.00000000E+00
  0.00000000E+00  0.00000000E+00  0.00000000E+00
  0.00000000E+00  0.00000000E+00  0.00000000E+00
  0.00000000E+00  0.00000000E+00  0.00000000E+00
  0.00000000E+00  0.00000000E+00  0.00000000E+00
  0.00000000E+00  0.00000000E+00  0.00000000E+00
  0.00000000E+00  0.00000000E+00  0.00000000E+00
  0.00000000E+00  0.00000000E+00  0.00000000E+00
  0.00000000E+00  0.00000000E+00  0.00000000E+00
  0.00000000E+00  0.00000000E+00  0.00000000E+00
  0.00000000E+00  0.00000000E+00  0.00000000E+00
  0.00000000E+00  0.00000000E+00  0.00000000E+00
  0.00000000E+00  0.00000000E+00  0.00000000E+00
  0.00000000E+00  0.00000000E+00  0.00000000E+00
  0.00000000E+00  0.00000000E+00  0.00000000E+00
  0.00000000E+00  0.00000000E+00  0.00000000E+00
  0.00000000E+00  0.00000000E+00  0.00000000E+00
  0.00000000E+00  0.00000000E+00  0.00000000E+00
  0.00000000E+00  0.00000000E+00  0.00000000E+00
  0.00000000E+00  0.00000000E+00  0.00000000E+00
  0.00000000E+00  0.00000000E+00  0.00000000E+00
  0.00000000E+00  0.00000000E+00  0.00000000E+00
  0.00000000E+00  0.00000000E+00  0.00000000E+00
  0.00000000E+00  0.00000000E+00  0.00000000E+00
  0.00000000E+00  0.00000000E+00  0.00000000E+00
  0.00000000E+00  0.00000000E+00  0.00000000E+00
  0.00000000E+00  0.00000000E+00  0.00000000E+00
  0.00000000E+00  0.00000000E+00  0.00000000E+00
  0.00000000E+00  0.00000000E+00  0.00000000E+00
  0.00000000E+00  0.00000000E+00  0.00000000E+00
  0.00000000E+00  0.00000000E+00  0.00000000E+00
  0.00000000E+00  0.00000000E+00  0.00000000E+00
  0.00000000E+00  0.00000000E+00  0.00000000E+00
  0.00000000E+00  0.00000000E+00  0.00000000E+00
  0.00000000E+00  0.00000000E+00  0.00000000E+00
  0.00000000E+00  0.00000000E+00  0.00000000E+00
  0.00000000E+00  0.00000000E+00  0.00000000E+00
  0.00000000E+00  0.00000000E+00  0.00000000E+00
  0.00000000E+00  0.00000000E+00  0.00000000E+00
  0.00000000E+00  0.00000000E+00  0.00000000E+00
  0.00000000E+00  0.00000000E+00  0.00000000E+00
  0.00000000E+00  0.00000000E+00  0.00000000E+00
  0.00000000E+00  0.00000000E+00  0.00000000E+00
  0.00000000E+00  0.00000000E+00  0.00000000E+00
  0.00000000E+00  0.00000000E+00  0.00000000E+00
  0.00000000E+00  0.00000000E+00  0.00000000E+00
  0.00000000E+00  0.00000000E+00  0.00000000E+00
  0.00000000E+00  0.00000000E+00  0.00000000E+00
  0.00000000E+00  0.00000000E+00  0.00000000E+00
  0.00000000E+00  0.00000000E+00  0.00000000E+00
  0.00000000E+00  0.00000000E+00  0.00000000E+00
  0.00000000E+00  0.00000000E+00  0.00000000E+00
  0.00000000E+00  0.00000000E+00  0.00000000E+00
  0.00000000E+00  0.00000000E+00  0.00000000E+00
  0.00000000E+00  0.00000000E+00  0.00000000E+00
  0.00000000E+00  0.00000000E+00  0.00000000E+00
  0.00000000E+00  0.00000000E+00  0.00000000E+00
  0.00000000E+00  0.00000000E+00  0.00000000E+00
  0.00000000E+00  0.00000000E+00  0.00000000E+00
  0.00000000E+00  0.00000000E+00  0.00000000E+00
  0.00000000E+00  0.00000000E+00  0.00000000E+00
  0.00000000E+00  0.00000000E+00  0.00000000E+00
  0.00000000E+00  0.00000000E+00  0.00000000E+00
  0.00000000E+00  0.00000000E+00  0.00000000E+00
  0.00000000E+00  0.00000000E+00  0.00000000E+00
  0.00000000E+00  0.00000000E+00  0.00000000E+00
  0.00000000E+00  0.00000000E+00  0.00000000E+00
  0.00000000E+00  0.00000000E+00  0.00000000E+00
  0.00000000E+00  0.00000000E+00  0.00000000E+00
  0.00000000E+00  0.00000000E+00  0.00000000E+00
  0.00000000E+00  0.00000000E+00  0.00000000E+00
  0.00000000E+00  0.00000000E+00  0.00000000E+00
  0.00000000E+00  0.00000000E+00  0.00000000E+00
  0.00000000E+00  0.00000000E+00  0.00000000E+00
  0.00000000E+00  0.00000000E+00  0.00000000E+00
  0.00000000E+00  0.00000000E+00  0.00000000E+00
  0.00000000E+00  0.00000000E+00  0.00000000E+00
  0.00000000E+00  0.00000000E+00  0.00000000E+00
  0.00000000E+00  0.00000000E+00  0.00000000E+00
  0.00000000E+00  0.00000000E+00  0.00000000E+00
  0.00000000E+00  0.00000000E+00  0.00000000E+00
  0.00000000E+00  0.00000000E+00  0.00000000E+00
  0.00000000E+00  0.00000000E+00  0.00000000E+00
  0.00000000E+00  0.00000000E+00  0.00000000E+00
  0.00000000E+00  0.00000000E+00  0.00000000E+00
  0.00000000E+00  0.00000000E+00  0.00000000E+00
  0.00000000E+00  0.00000000E+00  0.00000000E+00
  0.00000000E+00  0.00000000E+00  0.00000000E+00
  0.00000000E+00  0.00000000E+00  0.00000000E+00
  0.00000000E+00  0.00000000E+00  0.00000000E+00
  0.00000000E+00  0.00000000E+00  0.00000000E+00
  0.00000000E+00  0.00000000E+00  0.00000000E+00
  0.00000000E+00  0.00000000E+00  0.00000000E+00
  0.00000000E+00  0.00000000E+00  0.00000000E+00
  0.00000000E+00  0.00000000E+00  0.00000000E+00
  0.00000000E+00  0.00000000E+00  0.00000000E+00
  0.00000000E+00  0.00000000E+00  0.00000000E+00
  0.00000000E+00  0.00000000E+00  0.00000000E+00
  0.00000000E+00  0.00000000E+00  0.00000000E+00
  0.00000000E+00  0.00000000E+00  0.00000000E+00
  0.00000000E+00  0.00000000E+00  0.00000000E+00
  0.00000000E+00  0.00000000E+00  0.00000000E+00
  0.00000000E+00  0.00000000E+00  0.00000000E+00
  0.00000000E+00  0.00000000E+00  0.00000000E+00
  0.00000000E+00  0.00000000E+00  0.00000000E+00
  0.00000000E+00  0.00000000E+00  0.00000000E+00
  0.00000000E+00  0.00000000E+00  0.00000000E+00
  0.00000000E+00  0.00000000E+00  0.00000000E+00
  0.00000000E+00  0.00000000E+00  0.00000000E+00
  0.00000000E+00  0.00000000E+00  0.00000000E+00
  0.00000000E+00  0.00000000E+00  0.00000000E+00
  0.00000000E+00  0.00000000E+00  0.00000000E+00
  0.00000000E+00  0.00000000E+00  0.00000000E+00
  0.00000000E+00  0.00000000E+00  0.00000000E+00
  0.00000000E+00  0.00000000E+00  0.00000000E+00
  0.00000000E+00  0.00000000E+00  0.00000000E+00
  0.00000000E+00  0.00000000E+00  0.00000000E+00
  0.00000000E+00  0.00000000E+00  0.00000000E+00
  0.00000000E+00  0.00000000E+00  0.00000000E+00
  0.00000000E+00  0.00000000E+00  0.00000000E+00
  0.00000000E+00  0.00000000E+00  0.00000000E+00
  0.00000000E+00  0.00000000E+00  0.00000000E+00
  0.00000000E+00  0.00000000E+00  0.00000000E+00
  0.00000000E+00  0.00000000E+00  0.00000000E+00
  0.00000000E+00  0.00000000E+00  0.00000000E+00
  0.00000000E+00  0.00000000E+00  0.00000000E+00
  0.00000000E+00  0.00000000E+00  0.00000000E+00
  0.00000000E+00  0.00000000E+00  0.00000000E+00
  0.00000000E+00  0.00000000E+00  0.00000000E+00
  0.00000000E+00  0.00000000E+00  0.00000000E+00
  0.00000000E+00  0.00000000E+00  0.00000000E+00
  0.00000000E+00  0.00000000E+00  0.00000000E+00
  0.00000000E+00  0.00000000E+00  0.00000000E+00
  0.00000000E+00  0.00000000E+00  0.00000000E+00
  0.00000000E+00  0.00000000E+00  0.00000000E+00
  0.00000000E+00  0.00000000E+00  0.00000000E+00
  0.00000000E+00  0.00000000E+00  0.00000000E+00
  0.00000000E+00  0.00000000E+00  0.00000000E+00
  0.00000000E+00  0.00000000E+00  0.00000000E+00
  0.00000000E+00  0.00000000E+00  0.00000000E+00
  0.00000000E+00  0.00000000E+00  0.00000000E+00
  0.00000000E+00  0.00000000E+00  0.00000000E+00
  0.00000000E+00  0.00000000E+00  0.00000000E+00
  0.00000000E+00  0.00000000E+00  0.00000000E+00
  0.00000000E+00  0.00000000E+00  0.00000000E+00
  0.00000000E+00  0.00000000E+00  0.00000000E+00
  0.00000000E+00  0.00000000E+00  0.00000000E+00
  0.00000000E+00  0.00000000E+00  0.00000000E+00
  0.00000000E+00  0.00000000E+00  0.00000000E+00
  0.00000000E+00  0.00000000E+00  0.00000000E+00
  0.00000000E+00  0.00000000E+00  0.00000000E+00
  0.00000000E+00  0.00000000E+00  0.00000000E+00
  0.00000000E+00  0.00000000E+00  0.00000000E+00
  0.00000000E+00  0.00000000E+00  0.00000000E+00
  0.00000000E+00  0.00000000E+00  0.00000000E+00
  0.00000000E+00  0.00000000E+00  0.00000000E+00
  0.00000000E+00  0.00000000E+00  0.00000000E+00
  0.00000000E+00  0.00000000E+00  0.00000000E+00
  0.00000000E+00  0.00000000E+00  0.00000000E+00
  0.00000000E+00  0.00000000E+00  0.00000000E+00
  0.00000000E+00  0.00000000E+00  0.00000000E+00
  0.00000000E+00  0.00000000E+00  0.00000000E+00
  0.00000000E+00  0.00000000E+00  0.00000000E+00
  0.00000000E+00  0.00000000E+00  0.00000000E+00
  0.00000000E+00  0.00000000E+00  0.00000000E+00
  0.00000000E+00  0.00000000E+00  0.00000000E+00
  0.00000000E+00  0.00000000E+00  0.00000000E+00
  0.00000000E+00  0.00000000E+00  0.00000000E+00
  0.00000000E+00  0.00000000E+00  0.00000000E+00
  0.00000000E+00  0.00000000E+00  0.00000000E+00
  0.00000000E+00  0.00000000E+00  0.00000000E+00
  0.00000000E+00  0.00000000E+00  0.00000000E+00
  0.00000000E+00  0.00000000E+00  0.00000000E+00
  0.00000000E+00  0.00000000E+00  0.00000000E+00
  0.00000000E+00  0.00000000E+00  0.00000000E+00
  0.00000000E+00  0.00000000E+00  0.00000000E+00
  0.00000000E+00  0.00000000E+00  0.00000000E+00
  0.00000000E+00  0.00000000E+00  0.00000000E+00
  0.00000000E+00  0.00000000E+00  0.00000000E+00
  0.00000000E+00  0.00000000E+00  0.00000000E+00
  0.00000000E+00  0.00000000E+00  0.00000000E+00
  0.00000000E+00  0.00000000E+00  0.00000000E+00
  0.00000000E+00  0.00000000E+00  0.00000000E+00
  0.00000000E+00  0.00000000E+00  0.00000000E+00
  0.00000000E+00  0.00000000E+00  0.00000000E+00
  0.00000000E+00  0.00000000E+00  0.00000000E+00
  0.00000000E+00  0.00000000E+00  0.00000000E+00
  0.00000000E+00  0.00000000E+00  0.00000000E+00
  0.00000000E+00  0.00000000E+00  0.00000000E+00
  0.00000000E+00  0.00000000E+00  0.00000000E+00
  0.00000000E+00  0.00000000E+00  0.00000000E+00
  0.00000000E+00  0.00000000E+00  0.00000000E+00
  0.00000000E+00  0.00000000E+00  0.00000000E+00
  0.00000000E+00  0.00000000E+00  0.00000000E+00
  0.00000000E+00  0.00000000E+00  0.00000000E+00
  0.00000000E+00  0.00000000E+00  0.00000000E+00
  0.00000000E+00  0.00000000E+00  0.00000000E+00
  0.00000000E+00  0.00000000E+00  0.00000000E+00
  0.00000000E+00  0.00000000E+00  0.00000000E+00
  0.00000000E+00  0.00000000E+00  0.00000000E+00
  0.00000000E+00  0.00000000E+00  0.00000000E+00
  0.00000000E+00  0.00000000E+00  0.00000000E+00
  0.00000000E+00  0.00000000E+00  0.00000000E+00
  0.00000000E+00  0.00000000E+00  0.00000000E+00
  0.00000000E+00  0.00000000E+00  0.00000000E+00
