Al  O 
 1.0000000000000000
    14.4150840000000002    0.0000000000000000    0.0000000000000000
    -7.2075420000000001   12.4838279999999990    0.0000000000000000
     0.0000000000000000    0.0000000000000000   36.1162539999999979
 Al  O  
 108 418
Cartesian
  0.0000000000000000  0.0000000000000000  1.9399464316160000
 -0.0000024025140001  2.7741853870919999  0.2461002738020000
 -0.0000024025140001  2.7741853870919999  4.1259931370339995
  2.4025164025140007  1.3870906129079998  2.4321338629659999
  2.4025164025140007  1.3870906129079998  6.3120267261979999
  0.0000000000000000  0.0000000000000000  4.6181805683840000
  0.0000000000000000  0.0000000000000000  8.4980734316159996
 -0.0000024025140001  2.7741853870919999  6.8042272738019998
 -0.0000024025140001  2.7741853870919999 10.6841201370340002
  2.4025164025140007  1.3870906129079998  8.9902608629659984
  2.4025164025140007  1.3870906129079998 12.8701537261979997
  0.0000000000000000  0.0000000000000000 11.1763075683839990
 -2.4025140000000000  4.1612759999999991  1.9399464316160000
 -2.4025164025140007  6.9354613870919994  0.2461002738020000
 -2.4025164025140007  6.9354613870919994  4.1259931370339995
  0.0000024025140000  5.5483666129079987  2.4321338629659999
  0.0000024025140000  5.5483666129079987  6.3120267261979999
 -2.4025140000000000  4.1612759999999991  4.6181805683840000
 -2.4025140000000000  4.1612759999999991  8.4980734316159996
 -2.4025164025140007  6.9354613870919994  6.8042272738019998
 -2.4025164025140007  6.9354613870919994 10.6841201370340002
  0.0000024025140000  5.5483666129079987  8.9902608629659984
  0.0000024025140000  5.5483666129079987 12.8701537261979997
 -2.4025140000000000  4.1612759999999991 11.1763075683839990
 -4.8050280000000001  8.3225519999999982  1.9399464316160000
 -4.8050304025140003 11.0967373870919985  0.2461002738020000
 -4.8050304025140003 11.0967373870919985  4.1259931370339995
 -2.4025115974860003  9.7096426129079987  2.4321338629659999
 -2.4025115974860003  9.7096426129079987  6.3120267261979999
 -4.8050280000000001  8.3225519999999982  4.6181805683840000
 -4.8050280000000001  8.3225519999999982  8.4980734316159996
 -4.8050304025140003 11.0967373870919985  6.8042272738019998
 -4.8050304025140003 11.0967373870919985 10.6841201370340002
 -2.4025115974860003  9.7096426129079987  8.9902608629659984
 -2.4025115974860003  9.7096426129079987 12.8701537261979997
 -4.8050280000000001  8.3225519999999982 11.1763075683839990
  4.8050280000000001  0.0000000000000000  1.9399464316160000
  4.8050255974859999  2.7741853870919999  0.2461002738020000
  4.8050255974859999  2.7741853870919999  4.1259931370339995
  7.2075444025139976  1.3870906129079998  2.4321338629659999
  7.2075444025139976  1.3870906129079998  6.3120267261979999
  4.8050280000000001  0.0000000000000000  4.6181805683840000
  4.8050280000000001  0.0000000000000000  8.4980734316159996
  4.8050255974859999  2.7741853870919999  6.8042272738019998
  4.8050255974859999  2.7741853870919999 10.6841201370340002
  7.2075444025139976  1.3870906129079998  8.9902608629659984
  7.2075444025139976  1.3870906129079998 12.8701537261979997
  4.8050280000000001  0.0000000000000000 11.1763075683839990
  2.4025140000000000  4.1612759999999991  1.9399464316160000
  2.4025115974859994  6.9354613870919994  0.2461002738020000
  2.4025115974859994  6.9354613870919994  4.1259931370339995
  4.8050304025139985  5.5483666129079987  2.4321338629659999
  4.8050304025139985  5.5483666129079987  6.3120267261979999
  2.4025140000000000  4.1612759999999991  4.6181805683840000
  2.4025140000000000  4.1612759999999991  8.4980734316159996
  2.4025115974859994  6.9354613870919994  6.8042272738019998
  2.4025115974859994  6.9354613870919994 10.6841201370340002
  4.8050304025139985  5.5483666129079987  8.9902608629659984
  4.8050304025139985  5.5483666129079987 12.8701537261979997
  2.4025140000000000  4.1612759999999991 11.1763075683839990
  0.0000000000000003  8.3225519999999982  1.9399464316160000
 -0.0000024025139999 11.0967373870919985  0.2461002738020000
 -0.0000024025139999 11.0967373870919985  4.1259931370339995
  2.4025164025139985  9.7096426129079987  2.4321338629659999
  2.4025164025139985  9.7096426129079987  6.3120267261979999
  0.0000000000000003  8.3225519999999982  4.6181805683840000
  0.0000000000000003  8.3225519999999982  8.4980734316159996
 -0.0000024025139999 11.0967373870919985  6.8042272738019998
 -0.0000024025139999 11.0967373870919985 10.6841201370340002
  2.4025164025139985  9.7096426129079987  8.9902608629659984
  2.4025164025139985  9.7096426129079987 12.8701537261979997
  0.0000000000000003  8.3225519999999982 11.1763075683839990
  9.6100560000000002  0.0000000000000000  1.9399464316160000
  9.6100535974859991  2.7741853870919999  0.2461002738020000
  9.6100535974859991  2.7741853870919999  4.1259931370339995
 12.0125724025139995  1.3870906129079998  2.4321338629659999
 12.0125724025139995  1.3870906129079998  6.3120267261979999
  9.6100560000000002  0.0000000000000000  4.6181805683840000
  9.6100560000000002  0.0000000000000000  8.4980734316159996
  9.6100535974859991  2.7741853870919999  6.8042272738019998
  9.6100535974859991  2.7741853870919999 10.6841201370340002
 12.0125724025139995  1.3870906129079998  8.9902608629659984
 12.0125724025139995  1.3870906129079998 12.8701537261979997
  9.6100560000000002  0.0000000000000000 11.1763075683839990
  7.2075420000000001  4.1612759999999991  1.9399464316160000
  7.2075395974859990  6.9354613870919994  0.2461002738020000
  7.2075395974859990  6.9354613870919994  4.1259931370339995
  9.6100584025139995  5.5483666129079987  2.4321338629659999
  9.6100584025139995  5.5483666129079987  6.3120267261979999
  7.2075420000000001  4.1612759999999991  4.6181805683840000
  7.2075420000000001  4.1612759999999991  8.4980734316159996
  7.2075395974859990  6.9354613870919994  6.8042272738019998
  7.2075395974859990  6.9354613870919994 10.6841201370340002
  9.6100584025139995  5.5483666129079987  8.9902608629659984
  9.6100584025139995  5.5483666129079987 12.8701537261979997
  7.2075420000000001  4.1612759999999991 11.1763075683839990
  4.8050280000000001  8.3225519999999982  1.9399464316160000
  4.8050255974859990 11.0967373870919985  0.2461002738020000
  4.8050255974859990 11.0967373870919985  4.1259931370339995
  7.2075444025140003  9.7096426129079987  2.4321338629659999
  7.2075444025140003  9.7096426129079987  6.3120267261979999
  4.8050280000000001  8.3225519999999982  4.6181805683840000
  4.8050280000000001  8.3225519999999982  8.4980734316159996
  4.8050255974859990 11.0967373870919985  6.8042272738019998
  4.8050255974859990 11.0967373870919985 10.6841201370340002
  7.2075444025140003  9.7096426129079987  8.9902608629659984
  7.2075444025140003  9.7096426129079987 12.8701537261979997
  4.8050280000000001  8.3225519999999982 11.1763075683839990
  1.4710401020879997  0.0000000000000000  3.2790634999999999
  3.1380364535579996  0.1131326106120000  1.0930167945820000
 -0.7355200510440000  1.2739580022960000  3.2790634999999999
  1.6669939489559995  2.8873179977039998  3.2790634999999999
  3.1380364535579988  2.6610486152040003  1.0930167945820000
  0.9314763004259996  1.3870906129079998  1.0930167945820000
  3.8735565046019995  1.3870906129079998  7.6511437945819996
  0.7355176485299999  1.5002273847959999  5.4651102054180001
  1.6669963514700001  2.6610486152040003  7.6511437945819996
  1.6669963514699997  0.1131326106120000  7.6511437945819996
  0.7355176485299996  4.0481433893880006  5.4651102054180001
 -1.4710425046020001  2.7741853870919999  5.4651102054180001
  1.4710376995740000  2.7741853870919999 12.0232372054179990
 -1.6669939489559999  2.8873179977039998  9.8371905000000002
 -0.7355224535580004  4.0481433893880006 12.0232372054179990
 -0.7355224535579999  1.5002273847959999 12.0232372054179990
  0.7355200510439999  1.2739580022960000  9.8371905000000002
  3.3339878979119995  0.0000000000000000  9.8371905000000002
 -0.9314738979120002  4.1612759999999991  3.2790634999999999
  0.7355224535579996  4.2744086106119994  1.0930167945820000
 -3.1380340510439999  5.4352340022959993  3.2790634999999999
 -0.7355200510440003  7.0485939977039989  3.2790634999999999
  0.7355224535579992  6.8223246152039998  1.0930167945820000
 -1.4710376995740002  5.5483666129079987  1.0930167945820000
  1.4710425046019997  5.5483666129079987  7.6511437945819996
 -1.6669963514700001  5.6615033847959992  5.4651102054180001
 -0.7355176485300006  6.8223246152039998  7.6511437945819996
 -0.7355176485300003  4.2744086106119994  7.6511437945819996
 -1.6669963514699999  8.2094193893879996  5.4651102054180001
 -3.8735565046020004  6.9354613870919994  5.4651102054180001
 -0.9314763004259998  6.9354613870919994 12.0232372054179990
 -4.0695079489559998  7.0485939977039989  9.8371905000000002
 -3.1380364535580005  8.2094193893879996 12.0232372054179990
 -3.1380364535580001  5.6615033847959992 12.0232372054179990
 -1.6669939489560004  5.4352340022959993  9.8371905000000002
  0.9314738979119995  4.1612759999999991  9.8371905000000002
 -3.3339878979120003  8.3225519999999982  3.2790634999999999
 -1.6669915464420006  8.4356846106119985  1.0930167945820000
 -5.5405480510440004  9.5965100022959984  3.2790634999999999
 -3.1380340510440008 11.2098699977039971  3.2790634999999999
 -1.6669915464420011 10.9836006152039989  1.0930167945820000
 -3.8735516995740009  9.7096426129079987  1.0930167945820000
 -0.9314714953980002  9.7096426129079987  7.6511437945819996
 -4.0695103514700000  9.8227793847959983  5.4651102054180001
 -3.1380316485300002 10.9836006152039989  7.6511437945819996
 -3.1380316485300006  8.4356846106119985  7.6511437945819996
 -4.0695103514700000 12.3706953893879987  5.4651102054180001
 -6.2760705046020000 11.0967373870919985  5.4651102054180001
 -3.3339903004259992 11.0967373870919985 12.0232372054179990
 -6.4720219489559998 11.2098699977039971  9.8371905000000002
 -5.5405504535580006 12.3706953893879987 12.0232372054179990
 -5.5405504535579997  9.8227793847959983 12.0232372054179990
 -4.0695079489560007  9.5965100022959984  9.8371905000000002
 -1.4710401020880004  8.3225519999999982  9.8371905000000002
  6.2760681020879989  0.0000000000000000  3.2790634999999999
  7.9430644535579980  0.1131326106120000  1.0930167945820000
  4.0695079489559998  1.2739580022960000  3.2790634999999999
  6.4720219489559998  2.8873179977039998  3.2790634999999999
  7.9430644535579980  2.6610486152040003  1.0930167945820000
  5.7365043004259988  1.3870906129079998  1.0930167945820000
  8.6785845046019983  1.3870906129079998  7.6511437945819996
  5.5405456485299993  1.5002273847959999  5.4651102054180001
  6.4720243514699973  2.6610486152040003  7.6511437945819996
  6.4720243514699991  0.1131326106120000  7.6511437945819996
  5.5405456485299993  4.0481433893880006  5.4651102054180001
  3.3339854953979988  2.7741853870919999  5.4651102054180001
  6.2760656995740005  2.7741853870919999 12.0232372054179990
  3.1380340510439999  2.8873179977039998  9.8371905000000002
  4.0695055464419987  4.0481433893880006 12.0232372054179990
  4.0695055464420005  1.5002273847959999 12.0232372054179990
  5.5405480510439995  1.2739580022960000  9.8371905000000002
  8.1390158979119995  0.0000000000000000  9.8371905000000002
  3.8735541020879989  4.1612759999999991  3.2790634999999999
  5.5405504535579979  4.2744086106119994  1.0930167945820000
  1.6669939489560002  5.4352340022959993  3.2790634999999999
  4.0695079489559998  7.0485939977039989  3.2790634999999999
  5.5405504535579988  6.8223246152039998  1.0930167945820000
  3.3339903004259983  5.5483666129079987  1.0930167945820000
  6.2760705046019991  5.5483666129079987  7.6511437945819996
  3.1380316485299997  5.6615033847959992  5.4651102054180001
  4.0695103514699982  6.8223246152039998  7.6511437945819996
  4.0695103514699991  4.2744086106119994  7.6511437945819996
  3.1380316485300002  8.2094193893879996  5.4651102054180001
  0.9314714953979990  6.9354613870919994  5.4651102054180001
  3.8735516995740000  6.9354613870919994 12.0232372054179990
  0.7355200510440003  7.0485939977039989  9.8371905000000002
  1.6669915464419995  8.2094193893879996 12.0232372054179990
  1.6669915464419991  5.6615033847959992 12.0232372054179990
  3.1380340510439990  5.4352340022959993  9.8371905000000002
  5.7365018979119995  4.1612759999999991  9.8371905000000002
  1.4710401020880000  8.3225519999999982  3.2790634999999999
  3.1380364535579983  8.4356846106119985  1.0930167945820000
 -0.7355200510439999  9.5965100022959984  3.2790634999999999
  1.6669939489560004 11.2098699977039971  3.2790634999999999
  3.1380364535579979 10.9836006152039989  1.0930167945820000
  0.9314763004259986  9.7096426129079987  1.0930167945820000
  3.8735565046019991  9.7096426129079987  7.6511437945819996
  0.7355176485300001  9.8227793847959983  5.4651102054180001
  1.6669963514699992 10.9836006152039989  7.6511437945819996
  1.6669963514699988  8.4356846106119985  7.6511437945819996
  0.7355176485299989 12.3706953893879987  5.4651102054180001
 -1.4710425046020006 11.0967373870919985  5.4651102054180001
  1.4710376995740007 11.0967373870919985 12.0232372054179990
 -1.6669939489559999 11.2098699977039971  9.8371905000000002
 -0.7355224535579999 12.3706953893879987 12.0232372054179990
 -0.7355224535580005  9.8227793847959983 12.0232372054179990
  0.7355200510439990  9.5965100022959984  9.8371905000000002
  3.3339878979119999  8.3225519999999982  9.8371905000000002
 11.0810961020879990  0.0000000000000000  3.2790634999999999
 12.7480924535579998  0.1131326106120000  1.0930167945820000
  8.8745359489559998  1.2739580022960000  3.2790634999999999
 11.2770499489559981  2.8873179977039998  3.2790634999999999
 12.7480924535579980  2.6610486152040003  1.0930167945820000
 10.5415323004260006  1.3870906129079998  1.0930167945820000
 13.4836125046019983  1.3870906129079998  7.6511437945819996
 10.3455736485299976  1.5002273847959999  5.4651102054180001
 11.2770523514700010  2.6610486152040003  7.6511437945819996
 11.2770523514700010  0.1131326106120000  7.6511437945819996
 10.3455736485299976  4.0481433893880006  5.4651102054180001
  8.1390134953979985  2.7741853870919999  5.4651102054180001
 11.0810936995739979  2.7741853870919999 12.0232372054179990
  7.9430620510440004  2.8873179977039998  9.8371905000000002
  8.8745335464419988  4.0481433893880006 12.0232372054179990
  8.8745335464419988  1.5002273847959999 12.0232372054179990
 10.3455760510439987  1.2739580022960000  9.8371905000000002
 12.9440438979119978  0.0000000000000000  9.8371905000000002
  8.6785821020879990  4.1612759999999991  3.2790634999999999
 10.3455784535579998  4.2744086106119994  1.0930167945820000
  6.4720219489559998  5.4352340022959993  3.2790634999999999
  8.8745359489559981  7.0485939977039989  3.2790634999999999
 10.3455784535579980  6.8223246152039998  1.0930167945820000
  8.1390183004260006  5.5483666129079987  1.0930167945820000
 11.0810985046019983  5.5483666129079987  7.6511437945819996
  7.9430596485299985  5.6615033847959992  5.4651102054180001
  8.8745383514700009  6.8223246152039998  7.6511437945819996
  8.8745383514700009  4.2744086106119994  7.6511437945819996
  7.9430596485300011  8.2094193893879996  5.4651102054180001
  5.7364994953979984  6.9354613870919994  5.4651102054180001
  8.6785796995739979  6.9354613870919994 12.0232372054179990
  5.5405480510440004  7.0485939977039989  9.8371905000000002
  6.4720195464419987  8.2094193893879996 12.0232372054179990
  6.4720195464419978  5.6615033847959992 12.0232372054179990
  7.9430620510439987  5.4352340022959993  9.8371905000000002
 10.5415298979119978  4.1612759999999991  9.8371905000000002
  6.2760681020879989  8.3225519999999982  3.2790634999999999
  7.9430644535580006  8.4356846106119985  1.0930167945820000
  4.0695079489560007  9.5965100022959984  3.2790634999999999
  6.4720219489559989 11.2098699977039971  3.2790634999999999
  7.9430644535579980 10.9836006152039989  1.0930167945820000
  5.7365043004259979  9.7096426129079987  1.0930167945820000
  8.6785845046019983  9.7096426129079987  7.6511437945819996
  5.5405456485299993  9.8227793847959983  5.4651102054180001
  6.4720243514699991 10.9836006152039989  7.6511437945819996
  6.4720243514699982  8.4356846106119985  7.6511437945819996
  5.5405456485299984 12.3706953893879987  5.4651102054180001
  3.3339854953979988 11.0967373870919985  5.4651102054180001
  6.2760656995740014 11.0967373870919985 12.0232372054179990
  3.1380340510440008 11.2098699977039971  9.8371905000000002
  4.0695055464419996 12.3706953893879987 12.0232372054179990
  4.0695055464419987  9.8227793847959983 12.0232372054179990
  5.5405480510439995  9.5965100022959984  9.8371905000000002
  8.1390158979119978  8.3225519999999982  9.8371905000000002
  0.0000000000000000  0.0000000000000000 14.2701537261980000
  0.0000000000000000  0.0000000000000000 15.4701537261979993
  0.0000000000000000  0.0000000000000000 16.6701537261979986
  0.0000000000000000  0.0000000000000000 17.8701537261980015
 -0.9009427500000000  1.5604784999999999 14.2701537261980000
 -0.9009427500000000  1.5604784999999999 15.4701537261979993
 -0.9009427500000000  1.5604784999999999 16.6701537261979986
 -0.9009427500000000  1.5604784999999999 17.8701537261980015
 -1.8018855000000000  3.1209569999999998 14.2701537261980000
 -1.8018855000000000  3.1209569999999998 15.4701537261979993
 -1.8018855000000000  3.1209569999999998 16.6701537261979986
 -1.8018855000000000  3.1209569999999998 17.8701537261980015
 -2.7028282500000000  4.6814354999999992 14.2701537261980000
 -2.7028282500000000  4.6814354999999992 15.4701537261979993
 -2.7028282500000000  4.6814354999999992 16.6701537261979986
 -2.7028282500000000  4.6814354999999992 17.8701537261980015
 -3.6037710000000001  6.2419139999999995 14.2701537261980000
 -3.6037710000000001  6.2419139999999995 15.4701537261979993
 -3.6037710000000001  6.2419139999999995 16.6701537261979986
 -3.6037710000000001  6.2419139999999995 17.8701537261980015
 -4.5047137500000005  7.8023924999999998 14.2701537261980000
 -4.5047137500000005  7.8023924999999998 15.4701537261979993
 -4.5047137500000005  7.8023924999999998 16.6701537261979986
 -4.5047137500000005  7.8023924999999998 17.8701537261980015
 -5.4056565000000001  9.3628709999999984 14.2701537261980000
 -5.4056565000000001  9.3628709999999984 15.4701537261979993
 -5.4056565000000001  9.3628709999999984 16.6701537261979986
 -5.4056565000000001  9.3628709999999984 17.8701537261980015
 -6.3065992499999997 10.9233494999999987 14.2701537261980000
 -6.3065992499999997 10.9233494999999987 15.4701537261979993
 -6.3065992499999997 10.9233494999999987 16.6701537261979986
 -6.3065992499999997 10.9233494999999987 17.8701537261980015
  1.8018854999999991  0.0000000000000000 14.2701537261980000
  1.8018854999999991  0.0000000000000000 15.4701537261979993
  1.8018854999999991  0.0000000000000000 16.6701537261979986
  1.8018854999999991  0.0000000000000000 17.8701537261980015
  0.9009427500000000  1.5604784999999999 14.2701537261980000
  0.9009427500000000  1.5604784999999999 15.4701537261979993
  0.9009427500000000  1.5604784999999999 16.6701537261979986
  0.9009427500000000  1.5604784999999999 17.8701537261980015
  0.0000000000000000  3.1209569999999998 14.2701537261980000
  0.0000000000000000  3.1209569999999998 15.4701537261979993
  0.0000000000000000  3.1209569999999998 16.6701537261979986
  0.0000000000000000  3.1209569999999998 17.8701537261980015
 -0.9009427500000000  4.6814354999999992 14.2701537261980000
 -0.9009427500000000  4.6814354999999992 15.4701537261979993
 -0.9009427500000000  4.6814354999999992 16.6701537261979986
 -0.9009427500000000  4.6814354999999992 17.8701537261980015
 -1.8018855000000000  6.2419139999999995 14.2701537261980000
 -1.8018855000000000  6.2419139999999995 15.4701537261979993
 -1.8018855000000000  6.2419139999999995 16.6701537261979986
 -1.8018855000000000  6.2419139999999995 17.8701537261980015
 -2.7028282500000005  7.8023924999999998 14.2701537261980000
 -2.7028282500000005  7.8023924999999998 15.4701537261979993
 -2.7028282500000005  7.8023924999999998 16.6701537261979986
 -2.7028282500000005  7.8023924999999998 17.8701537261980015
 -3.6037710000000001  9.3628709999999984 14.2701537261980000
 -3.6037710000000001  9.3628709999999984 15.4701537261979993
 -3.6037710000000001  9.3628709999999984 16.6701537261979986
 -3.6037710000000001  9.3628709999999984 17.8701537261980015
 -4.5047137499999996 10.9233494999999987 14.2701537261980000
 -4.5047137499999996 10.9233494999999987 15.4701537261979993
 -4.5047137499999996 10.9233494999999987 16.6701537261979986
 -4.5047137499999996 10.9233494999999987 17.8701537261980015
  3.6037709999999992  0.0000000000000000 14.2701537261980000
  3.6037709999999992  0.0000000000000000 15.4701537261979993
  3.6037709999999992  0.0000000000000000 16.6701537261979986
  3.6037709999999992  0.0000000000000000 17.8701537261980015
  2.7028282500000000  1.5604784999999999 14.2701537261980000
  2.7028282500000000  1.5604784999999999 15.4701537261979993
  2.7028282500000000  1.5604784999999999 16.6701537261979986
  2.7028282500000000  1.5604784999999999 17.8701537261980015
  1.8018855000000000  3.1209569999999998 14.2701537261980000
  1.8018855000000000  3.1209569999999998 15.4701537261979993
  1.8018855000000000  3.1209569999999998 16.6701537261979986
  1.8018855000000000  3.1209569999999998 17.8701537261980015
  0.9009427500000000  4.6814354999999992 14.2701537261980000
  0.9009427500000000  4.6814354999999992 15.4701537261979993
  0.9009427500000000  4.6814354999999992 16.6701537261979986
  0.9009427500000000  4.6814354999999992 17.8701537261980015
  0.0000000000000000  6.2419139999999995 14.2701537261980000
  0.0000000000000000  6.2419139999999995 15.4701537261979993
  0.0000000000000000  6.2419139999999995 16.6701537261979986
  0.0000000000000000  6.2419139999999995 17.8701537261980015
 -0.9009427500000005  7.8023924999999998 14.2701537261980000
 -0.9009427500000005  7.8023924999999998 15.4701537261979993
 -0.9009427500000005  7.8023924999999998 16.6701537261979986
 -0.9009427500000005  7.8023924999999998 17.8701537261980015
 -1.8018855000000000  9.3628709999999984 14.2701537261980000
 -1.8018855000000000  9.3628709999999984 15.4701537261979993
 -1.8018855000000000  9.3628709999999984 16.6701537261979986
 -1.8018855000000000  9.3628709999999984 17.8701537261980015
 -2.7028282499999996 10.9233494999999987 14.2701537261980000
 -2.7028282499999996 10.9233494999999987 15.4701537261979993
 -2.7028282499999996 10.9233494999999987 16.6701537261979986
 -2.7028282499999996 10.9233494999999987 17.8701537261980015
  5.4056564999999992  0.0000000000000000 14.2701537261980000
  5.4056564999999992  0.0000000000000000 15.4701537261979993
  5.4056564999999992  0.0000000000000000 16.6701537261979986
  5.4056564999999992  0.0000000000000000 17.8701537261980015
  4.5047137500000005  1.5604784999999999 14.2701537261980000
  4.5047137500000005  1.5604784999999999 15.4701537261979993
  4.5047137500000005  1.5604784999999999 16.6701537261979986
  4.5047137500000005  1.5604784999999999 17.8701537261980015
  3.6037710000000001  3.1209569999999998 14.2701537261980000
  3.6037710000000001  3.1209569999999998 15.4701537261979993
  3.6037710000000001  3.1209569999999998 16.6701537261979986
  3.6037710000000001  3.1209569999999998 17.8701537261980015
  2.7028282500000000  4.6814354999999992 14.2701537261980000
  2.7028282500000000  4.6814354999999992 15.4701537261979993
  2.7028282500000000  4.6814354999999992 16.6701537261979986
  2.7028282500000000  4.6814354999999992 17.8701537261980015
  1.8018855000000000  6.2419139999999995 14.2701537261980000
  1.8018855000000000  6.2419139999999995 15.4701537261979993
  1.8018855000000000  6.2419139999999995 16.6701537261979986
  1.8018855000000000  6.2419139999999995 17.8701537261980015
  0.9009427499999996  7.8023924999999998 14.2701537261980000
  0.9009427499999996  7.8023924999999998 15.4701537261979993
  0.9009427499999996  7.8023924999999998 16.6701537261979986
  0.9009427499999996  7.8023924999999998 17.8701537261980015
  0.0000000000000000  9.3628709999999984 14.2701537261980000
  0.0000000000000000  9.3628709999999984 15.4701537261979993
  0.0000000000000000  9.3628709999999984 16.6701537261979986
  0.0000000000000000  9.3628709999999984 17.8701537261980015
 -0.9009427499999996 10.9233494999999987 14.2701537261980000
 -0.9009427499999996 10.9233494999999987 15.4701537261979993
 -0.9009427499999996 10.9233494999999987 16.6701537261979986
 -0.9009427499999996 10.9233494999999987 17.8701537261980015
  7.2075419999999992  0.0000000000000000 14.2701537261980000
  7.2075419999999992  0.0000000000000000 15.4701537261979993
  7.2075419999999992  0.0000000000000000 16.6701537261979986
  7.2075419999999992  0.0000000000000000 17.8701537261980015
  6.3065992499999997  1.5604784999999999 14.2701537261980000
  6.3065992499999997  1.5604784999999999 15.4701537261979993
  6.3065992499999997  1.5604784999999999 16.6701537261979986
  6.3065992499999997  1.5604784999999999 17.8701537261980015
  5.4056565000000001  3.1209569999999998 14.2701537261980000
  5.4056565000000001  3.1209569999999998 15.4701537261979993
  5.4056565000000001  3.1209569999999998 16.6701537261979986
  5.4056565000000001  3.1209569999999998 17.8701537261980015
  4.5047137500000005  4.6814354999999992 14.2701537261980000
  4.5047137500000005  4.6814354999999992 15.4701537261979993
  4.5047137500000005  4.6814354999999992 16.6701537261979986
  4.5047137500000005  4.6814354999999992 17.8701537261980015
  3.6037710000000001  6.2419139999999995 14.2701537261980000
  3.6037710000000001  6.2419139999999995 15.4701537261979993
  3.6037710000000001  6.2419139999999995 16.6701537261979986
  3.6037710000000001  6.2419139999999995 17.8701537261980015
  2.7028282499999996  7.8023924999999998 14.2701537261980000
  2.7028282499999996  7.8023924999999998 15.4701537261979993
  2.7028282499999996  7.8023924999999998 16.6701537261979986
  2.7028282499999996  7.8023924999999998 17.8701537261980015
  1.8018855000000000  9.3628709999999984 14.2701537261980000
  1.8018855000000000  9.3628709999999984 15.4701537261979993
  1.8018855000000000  9.3628709999999984 16.6701537261979986
  1.8018855000000000  9.3628709999999984 17.8701537261980015
  0.9009427500000005 10.9233494999999987 14.2701537261980000
  0.9009427500000005 10.9233494999999987 15.4701537261979993
  0.9009427500000005 10.9233494999999987 16.6701537261979986
  0.9009427500000005 10.9233494999999987 17.8701537261980015
  9.0094275000000010  0.0000000000000000 14.2701537261980000
  9.0094275000000010  0.0000000000000000 15.4701537261979993
  9.0094275000000010  0.0000000000000000 16.6701537261979986
  9.0094275000000010  0.0000000000000000 17.8701537261980015
  8.1084847500000006  1.5604784999999999 14.2701537261980000
  8.1084847500000006  1.5604784999999999 15.4701537261979993
  8.1084847500000006  1.5604784999999999 16.6701537261979986
  8.1084847500000006  1.5604784999999999 17.8701537261980015
  7.2075420000000010  3.1209569999999998 14.2701537261980000
  7.2075420000000010  3.1209569999999998 15.4701537261979993
  7.2075420000000010  3.1209569999999998 16.6701537261979986
  7.2075420000000010  3.1209569999999998 17.8701537261980015
  6.3065992500000014  4.6814354999999992 14.2701537261980000
  6.3065992500000014  4.6814354999999992 15.4701537261979993
  6.3065992500000014  4.6814354999999992 16.6701537261979986
  6.3065992500000014  4.6814354999999992 17.8701537261980015
  5.4056565000000010  6.2419139999999995 14.2701537261980000
  5.4056565000000010  6.2419139999999995 15.4701537261979993
  5.4056565000000010  6.2419139999999995 16.6701537261979986
  5.4056565000000010  6.2419139999999995 17.8701537261980015
  4.5047137500000005  7.8023924999999998 14.2701537261980000
  4.5047137500000005  7.8023924999999998 15.4701537261979993
  4.5047137500000005  7.8023924999999998 16.6701537261979986
  4.5047137500000005  7.8023924999999998 17.8701537261980015
  3.6037710000000009  9.3628709999999984 14.2701537261980000
  3.6037710000000009  9.3628709999999984 15.4701537261979993
  3.6037710000000009  9.3628709999999984 16.6701537261979986
  3.6037710000000009  9.3628709999999984 17.8701537261980015
  2.7028282500000014 10.9233494999999987 14.2701537261980000
  2.7028282500000014 10.9233494999999987 15.4701537261979993
  2.7028282500000014 10.9233494999999987 16.6701537261979986
  2.7028282500000014 10.9233494999999987 17.8701537261980015
 10.8113130000000002  0.0000000000000000 14.2701537261980000
 10.8113130000000002  0.0000000000000000 15.4701537261979993
 10.8113130000000002  0.0000000000000000 16.6701537261979986
 10.8113130000000002  0.0000000000000000 17.8701537261980015
  9.9103702499999997  1.5604784999999999 14.2701537261980000
  9.9103702499999997  1.5604784999999999 15.4701537261979993
  9.9103702499999997  1.5604784999999999 16.6701537261979986
  9.9103702499999997  1.5604784999999999 17.8701537261980015
  9.0094275000000010  3.1209569999999998 14.2701537261980000
  9.0094275000000010  3.1209569999999998 15.4701537261979993
  9.0094275000000010  3.1209569999999998 16.6701537261979986
  9.0094275000000010  3.1209569999999998 17.8701537261980015
  8.1084847500000006  4.6814354999999992 14.2701537261980000
  8.1084847500000006  4.6814354999999992 15.4701537261979993
  8.1084847500000006  4.6814354999999992 16.6701537261979986
  8.1084847500000006  4.6814354999999992 17.8701537261980015
  7.2075420000000001  6.2419139999999995 14.2701537261980000
  7.2075420000000001  6.2419139999999995 15.4701537261979993
  7.2075420000000001  6.2419139999999995 16.6701537261979986
  7.2075420000000001  6.2419139999999995 17.8701537261980015
  6.3065992499999997  7.8023924999999998 14.2701537261980000
  6.3065992499999997  7.8023924999999998 15.4701537261979993
  6.3065992499999997  7.8023924999999998 16.6701537261979986
  6.3065992499999997  7.8023924999999998 17.8701537261980015
  5.4056565000000001  9.3628709999999984 14.2701537261980000