al12 o18                                
    1.000000000000000     
     4.8050279616999996    0.0000000000000000    0.0000000000000000
    -2.4025139808999998    4.1612762808000001    0.0000000000000000
     0.0000000000000000    0.0000000000000000   13.1162538527999999
   Al   O 
    12    18
Direct
 -0.0000000000000000  0.0000000000000000  0.1478483168884444
  0.3333333280000019  0.6666666759999984  0.0188183451115529
  0.3333333280000019  0.6666666759999984  0.3145149748884413
  0.6666666690000014  0.3333333380000028  0.1854850071115572
  0.6666666690000014  0.3333333380000028  0.4811816408884459
 -0.0000000000000000  0.0000000000000000  0.3521516561115570
 -0.0000000000000000  0.0000000000000000  0.6478482718884442
  0.3333333280000019  0.6666666759999984  0.5188183221115545
  0.3333333280000019  0.6666666759999984  0.8145149748884413
  0.6666666690000014  0.3333333380000028  0.6854849891115558
  0.6666666690000014  0.3333333380000028  0.9811816778884455
 -0.0000000000000000  0.0000000000000000  0.8521516921115528
  0.3060509148078870  0.0000000000000000  0.2500000000000000
  0.6666666819999989  0.0272824241921122  0.0833333240000016
  0.9999999959999997  0.3060509068078864  0.2500000000000000
  0.6939490701921153  0.6939490791921125  0.2500000000000000
  0.9727176068078868  0.6393842728078915  0.0833333240000016
  0.3606157541921143  0.3333333380000028  0.0833333240000016
  0.9727176088078869  0.3333333380000028  0.5833333149999973
  0.3333333420000031  0.3606157701921086  0.4166666480000032
  0.6666666919999997  0.6393842728078915  0.5833333149999973
  0.3606157421921133  0.0272824241921122  0.5833333149999973
  0.6393842508078896  0.9727176118078907  0.4166666480000032
  0.0272824231921086  0.6666666759999984  0.4166666480000032
  0.6393842278078913  0.6666666759999984  0.9166667209999986
  0.0000000100000008  0.6939490791921125  0.7500000180000015
  0.3333333610000011  0.9727176118078907  0.9166667209999986
  0.0272824271921089  0.3606157701921086  0.9166667209999986
  0.3060509108078867  0.3060509068078864  0.7500000180000015
  0.6939490601921144  0.0000000000000000  0.7500000180000015
 
  0.00000000E+00  0.00000000E+00  0.00000000E+00
  0.00000000E+00  0.00000000E+00  0.00000000E+00
  0.00000000E+00  0.00000000E+00  0.00000000E+00
  0.00000000E+00  0.00000000E+00  0.00000000E+00
  0.00000000E+00  0.00000000E+00  0.00000000E+00
  0.00000000E+00  0.00000000E+00  0.00000000E+00
  0.00000000E+00  0.00000000E+00  0.00000000E+00
  0.00000000E+00  0.00000000E+00  0.00000000E+00
  0.00000000E+00  0.00000000E+00  0.00000000E+00
  0.00000000E+00  0.00000000E+00  0.00000000E+00
  0.00000000E+00  0.00000000E+00  0.00000000E+00
  0.00000000E+00  0.00000000E+00  0.00000000E+00
  0.00000000E+00  0.00000000E+00  0.00000000E+00
  0.00000000E+00  0.00000000E+00  0.00000000E+00
  0.00000000E+00  0.00000000E+00  0.00000000E+00
  0.00000000E+00  0.00000000E+00  0.00000000E+00
  0.00000000E+00  0.00000000E+00  0.00000000E+00
  0.00000000E+00  0.00000000E+00  0.00000000E+00
  0.00000000E+00  0.00000000E+00  0.00000000E+00
  0.00000000E+00  0.00000000E+00  0.00000000E+00
  0.00000000E+00  0.00000000E+00  0.00000000E+00
  0.00000000E+00  0.00000000E+00  0.00000000E+00
  0.00000000E+00  0.00000000E+00  0.00000000E+00
  0.00000000E+00  0.00000000E+00  0.00000000E+00
  0.00000000E+00  0.00000000E+00  0.00000000E+00
  0.00000000E+00  0.00000000E+00  0.00000000E+00
  0.00000000E+00  0.00000000E+00  0.00000000E+00
  0.00000000E+00  0.00000000E+00  0.00000000E+00
  0.00000000E+00  0.00000000E+00  0.00000000E+00
  0.00000000E+00  0.00000000E+00  0.00000000E+00
