Ni4 O4                                  
    1.000000000000000     
    12.6498584747000002    0.0000000000000000    0.0000000000000000
     0.0000000000000000   12.6498584747000002    0.0000000000000000
     0.0000000000000000    0.0000000000000000   25.6498584747000002
   Ni   O 
   108   108
Direct
 -0.0000000000000000 -0.0000000000000000  0.0040012233052498
 -0.0000000000000000 -0.0000000000000000  0.1664281049846366
 -0.0000000000000000 -0.0000000000000000  0.3255554918835346
 -0.0000000000000000  0.3333333432491230  0.0040012233052498
  0.0000000000000000  0.3333333432491230  0.1664281049846366
  0.0000000000000000  0.3333333432491230  0.3255554918835346
 -0.0000000000000000  0.6666666864982460  0.0040012233052498
 -0.0000000000000000  0.6666666864982460  0.1664281049846365
  0.0000000000000000  0.6666666864982460  0.3255554918835346
  0.3333333432491230  0.0000000000000000  0.0040012233052498
  0.3333333432491230 -0.0000000000000000  0.1664281049846366
  0.3333333432491230 -0.0000000000000000  0.3255554918835346
  0.3333333432491230  0.3333333432491230  0.0040012233052498
  0.3333333432491230  0.3333333432491230  0.1664281049846366
  0.3333333432491230  0.3333333432491230  0.3255554918835346
  0.3333333432491230  0.6666666864982460  0.0040012233052498
  0.3333333432491230  0.6666666864982460  0.1664281049846366
  0.3333333432491230  0.6666666864982460  0.3255554918835346
  0.6666666864982460  0.0000000000000000  0.0040012233052498
  0.6666666864982460 -0.0000000000000000  0.1664281049846366
  0.6666666864982460  0.0000000000000000  0.3255554918835346
  0.6666666864982460  0.3333333432491230  0.0040012233052498
  0.6666666864982460  0.3333333432491230  0.1664281049846366
  0.6666666864982460  0.3333333432491230  0.3255554918835346
  0.6666666864982460  0.6666666864982460  0.0040012233052498
  0.6666666864982460  0.6666666864982460  0.1664281049846366
  0.6666666864982460  0.6666666864982460  0.3255554918835346
 -0.0000000000000000  0.1666666716640890  0.0854233465922359
 -0.0000000000000000  0.1666666716640890  0.2445507261226638
 -0.0000000000000000  0.1666666716640890  0.4069775931431063
  0.0000000000000000  0.4999999999723315  0.0854233465922359
  0.0000000000000000  0.4999999999723315  0.2445507261226638
 -0.0000000000000000  0.4999999999723315  0.4069775931431063
 -0.0000000000000000  0.8333333134978034  0.0854233465922359
 -0.0000000000000000  0.8333333134978034  0.2445507261226638
 -0.0000000000000000  0.8333333134978034  0.4069775931431063
  0.3333333432491230  0.1666666716640890  0.0854233465922359
  0.3333333432491230  0.1666666716640890  0.2445507261226638
  0.3333333432491230  0.1666666716640890  0.4069775931431063
  0.3333333432491230  0.4999999999723315  0.0854233465922359
  0.3333333432491230  0.4999999999723315  0.2445507261226638
  0.3333333432491230  0.4999999999723315  0.4069775931431063
  0.3333333432491230  0.8333333134978034  0.0854233465922359
  0.3333333432491230  0.8333333134978034  0.2445507261226638
  0.3333333432491230  0.8333333134978034  0.4069775931431063
  0.6666666864982460  0.1666666716640890  0.0854233465922359
  0.6666666864982460  0.1666666716640890  0.2445507261226638
  0.6666666864982460  0.1666666716640890  0.4069775931431063
  0.6666666864982460  0.4999999999723315  0.0854233465922359
  0.6666666864982460  0.4999999999723315  0.2445507261226638
  0.6666666864982460  0.4999999999723315  0.4069775931431063
  0.6666666864982460  0.8333333134978034  0.0854233465922359
  0.6666666864982460  0.8333333134978034  0.2445507261226638
  0.6666666864982460  0.8333333134978034  0.4069775931431063
  0.1666666716640890 -0.0000000000000000  0.0854233465922359
  0.1666666716640890  0.0000000000000000  0.2445507261226638
  0.1666666716640890  0.0000000000000000  0.4069775931431063
  0.1666666716640890  0.3333333432491230  0.0854233465922359
  0.1666666716640890  0.3333333432491230  0.2445507261226638
  0.1666666716640890  0.3333333432491230  0.4069775931431063
  0.1666666716640890  0.6666666864982460  0.0854233465922359
  0.1666666716640890  0.6666666864982460  0.2445507261226638
  0.1666666716640890  0.6666666864982460  0.4069775931431063
  0.4999999999723315  0.0000000000000000  0.0854233465922359
  0.4999999999723315  0.0000000000000000  0.2445507261226638
  0.4999999999723315 -0.0000000000000000  0.4069775931431063
  0.4999999999723315  0.3333333432491230  0.0854233465922359
  0.4999999999723315  0.3333333432491230  0.2445507261226638
  0.4999999999723315  0.3333333432491230  0.4069775931431063
  0.4999999999723315  0.6666666864982460  0.0854233465922359
  0.4999999999723315  0.6666666864982460  0.2445507261226638
  0.4999999999723315  0.6666666864982460  0.4069775931431063
  0.8333333134978034  0.0000000000000000  0.0854233465922359
  0.8333333134978034  0.0000000000000000  0.2445507261226638
  0.8333333134978034  0.0000000000000000  0.4069775931431063
  0.8333333134978034  0.3333333432491230  0.0854233465922359
  0.8333333134978034  0.3333333432491230  0.2445507261226638
  0.8333333134978034  0.3333333432491230  0.4069775931431063
  0.8333333134978034  0.6666666864982460  0.0854233465922359
  0.8333333134978034  0.6666666864982460  0.2445507261226638
  0.8333333134978034  0.6666666864982460  0.4069775931431063
  0.1666666716640890  0.1666666716640890  0.0040012233052498
  0.1666666716640890  0.1666666716640890  0.1664281049846366
  0.1666666716640890  0.1666666716640890  0.3255554918835346
  0.1666666716640890  0.4999999999723315  0.0040012233052498
  0.1666666716640890  0.4999999999723315  0.1664281049846366
  0.1666666716640890  0.4999999999723315  0.3255554918835346
  0.1666666716640890  0.8333333134978034  0.0040012233052498
  0.1666666716640890  0.8333333134978034  0.1664281049846366
  0.1666666716640890  0.8333333134978034  0.3255554918835346
  0.4999999999723315  0.1666666716640890  0.0040012233052498
  0.4999999999723315  0.1666666716640890  0.1664281049846366
  0.4999999999723315  0.1666666716640890  0.3255554918835346
  0.4999999999723315  0.4999999999723315  0.0040012233052498
  0.4999999999723315  0.4999999999723315  0.1664281049846366
  0.4999999999723315  0.4999999999723315  0.3255554918835346
  0.4999999999723315  0.8333333134978034  0.0040012233052498
  0.4999999999723315  0.8333333134978034  0.1664281049846366
  0.4999999999723315  0.8333333134978034  0.3255554918835346
  0.8333333134978034  0.1666666716640890  0.0040012233052498
  0.8333333134978034  0.1666666716640890  0.1664281049846366
  0.8333333134978034  0.1666666716640890  0.3255554918835346
  0.8333333134978034  0.4999999999723315  0.0040012233052498
  0.8333333134978034  0.4999999999723315  0.1664281049846366
  0.8333333134978034  0.4999999999723315  0.3255554918835346
  0.8333333134978034  0.8333333134978034  0.0040012233052498
  0.8333333134978034  0.8333333134978034  0.1664281049846365
  0.8333333134978034  0.8333333134978034  0.3255554918835346
  0.1666666716640890  0.0000000000000000  0.0097745181579327
  0.1666666716640890 -0.0000000000000000  0.1657233887081167
  0.1666666716640890 -0.0000000000000000  0.3198296367066869
  0.1666666716640890  0.3333333432491230  0.0097745181579327
  0.1666666716640890  0.3333333432491230  0.1657233887081167
  0.1666666716640890  0.3333333432491230  0.3198296367066869
  0.1666666716640890  0.6666666864982460  0.0097745181579327
  0.1666666716640890  0.6666666864982460  0.1657233887081167
  0.1666666716640890  0.6666666864982460  0.3198296367066869
  0.4999999999723315  0.0000000000000000  0.0097745181579327
  0.4999999999723315 -0.0000000000000000  0.1657233887081167
  0.4999999999723315 -0.0000000000000000  0.3198296367066869
  0.4999999999723315  0.3333333432491230  0.0097745181579327
  0.4999999999723315  0.3333333432491230  0.1657233887081167
  0.4999999999723315  0.3333333432491230  0.3198296367066869
  0.4999999999723315  0.6666666864982460  0.0097745181579327
  0.4999999999723315  0.6666666864982460  0.1657233887081167
  0.4999999999723315  0.6666666864982460  0.3198296367066869
  0.8333333134978034 -0.0000000000000000  0.0097745181579327
  0.8333333134978034 -0.0000000000000000  0.1657233887081167
  0.8333333134978034  0.0000000000000000  0.3198296367066869
  0.8333333134978034  0.3333333432491230  0.0097745181579327
  0.8333333134978034  0.3333333432491230  0.1657233887081167
  0.8333333134978034  0.3333333432491230  0.3198296367066869
  0.8333333134978034  0.6666666864982460  0.0097745181579327
  0.8333333134978034  0.6666666864982460  0.1657233887081167
  0.8333333134978034  0.6666666864982460  0.3198296367066869
  0.1666666716640890  0.1666666716640890  0.0911492017690838
  0.1666666716640890  0.1666666716640890  0.2452554423991836
  0.1666666716640890  0.1666666716640890  0.4012042982904233
  0.1666666716640890  0.4999999999723315  0.0911492017690838
  0.1666666716640890  0.4999999999723315  0.2452554423991836
  0.1666666716640890  0.4999999999723315  0.4012042982904233
  0.1666666716640890  0.8333333134978034  0.0911492017690838
  0.1666666716640890  0.8333333134978034  0.2452554423991836
  0.1666666716640890  0.8333333134978034  0.4012042982904233
  0.4999999999723315  0.1666666716640890  0.0911492017690838
  0.4999999999723315  0.1666666716640890  0.2452554423991836
  0.4999999999723315  0.1666666716640890  0.4012042982904233
  0.4999999999723315  0.4999999999723315  0.0911492017690838
  0.4999999999723315  0.4999999999723315  0.2452554423991836
  0.4999999999723315  0.4999999999723315  0.4012042982904233
  0.4999999999723315  0.8333333134978034  0.0911492017690838
  0.4999999999723315  0.8333333134978034  0.2452554423991836
  0.4999999999723315  0.8333333134978034  0.4012042982904233
  0.8333333134978034  0.1666666716640890  0.0911492017690838
  0.8333333134978034  0.1666666716640890  0.2452554423991836
  0.8333333134978034  0.1666666716640890  0.4012042982904233
  0.8333333134978034  0.4999999999723315  0.0911492017690838
  0.8333333134978034  0.4999999999723315  0.2452554423991836
  0.8333333134978034  0.4999999999723315  0.4012042982904233
  0.8333333134978034  0.8333333134978034  0.0911492017690838
  0.8333333134978034  0.8333333134978034  0.2452554423991836
  0.8333333134978034  0.8333333134978034  0.4012042982904233
  0.0000000000000000  0.0000000000000000  0.0911492017690838
  0.0000000000000000 -0.0000000000000000  0.2452554423991836
 -0.0000000000000000  0.0000000000000000  0.4012042982904233
  0.0000000000000000  0.3333333432491230  0.0911492017690838
  0.0000000000000000  0.3333333432491230  0.2452554423991836
 -0.0000000000000000  0.3333333432491230  0.4012042982904233
  0.0000000000000000  0.6666666864982460  0.0911492017690838
  0.0000000000000000  0.6666666864982460  0.2452554423991836
 -0.0000000000000000  0.6666666864982460  0.4012042982904233
  0.3333333432491230 -0.0000000000000000  0.0911492017690838
  0.3333333432491230  0.0000000000000000  0.2452554423991836
  0.3333333432491230 -0.0000000000000000  0.4012042982904233
  0.3333333432491230  0.3333333432491230  0.0911492017690838
  0.3333333432491230  0.3333333432491230  0.2452554423991836
  0.3333333432491230  0.3333333432491230  0.4012042982904233
  0.3333333432491230  0.6666666864982460  0.0911492017690838
  0.3333333432491230  0.6666666864982460  0.2452554423991836
  0.3333333432491230  0.6666666864982460  0.4012042982904233
  0.6666666864982460  0.0000000000000000  0.0911492017690838
  0.6666666864982460 -0.0000000000000000  0.2452554423991836
  0.6666666864982460  0.0000000000000000  0.4012042982904233
  0.6666666864982460  0.3333333432491230  0.0911492017690838
  0.6666666864982460  0.3333333432491230  0.2452554423991836
  0.6666666864982460  0.3333333432491230  0.4012042982904233
  0.6666666864982460  0.6666666864982460  0.0911492017690838
  0.6666666864982460  0.6666666864982460  0.2452554423991836
  0.6666666864982460  0.6666666864982460  0.4012042982904233
 -0.0000000000000000  0.1666666716640890  0.0097745181579327
  0.0000000000000000  0.1666666716640890  0.1657233887081167
  0.0000000000000000  0.1666666716640890  0.3198296367066869
 -0.0000000000000000  0.4999999999723315  0.0097745181579327
  0.0000000000000000  0.4999999999723315  0.1657233887081167
  0.0000000000000000  0.4999999999723315  0.3198296367066869
 -0.0000000000000000  0.8333333134978034  0.0097745181579327
  0.0000000000000000  0.8333333134978034  0.1657233887081167
  0.0000000000000000  0.8333333134978034  0.3198296367066869
  0.3333333432491230  0.1666666716640890  0.0097745181579327
  0.3333333432491230  0.1666666716640890  0.1657233887081167
  0.3333333432491230  0.1666666716640890  0.3198296367066869
  0.3333333432491230  0.4999999999723315  0.0097745181579327
  0.3333333432491230  0.4999999999723315  0.1657233887081167
  0.3333333432491230  0.4999999999723315  0.3198296367066869
  0.3333333432491230  0.8333333134978034  0.0097745181579327
  0.3333333432491230  0.8333333134978034  0.1657233887081167
  0.3333333432491230  0.8333333134978034  0.3198296367066869
  0.6666666864982460  0.1666666716640890  0.0097745181579327
  0.6666666864982460  0.1666666716640890  0.1657233887081167
  0.6666666864982460  0.1666666716640890  0.3198296367066869
  0.6666666864982460  0.4999999999723315  0.0097745181579327
  0.6666666864982460  0.4999999999723315  0.1657233887081167
  0.6666666864982460  0.4999999999723315  0.3198296367066869
  0.6666666864982460  0.8333333134978034  0.0097745181579327
  0.6666666864982460  0.8333333134978034  0.1657233887081167
  0.6666666864982460  0.8333333134978034  0.3198296367066869
 
  0.00000000E+00  0.00000000E+00  0.00000000E+00
  0.00000000E+00  0.00000000E+00  0.00000000E+00
  0.00000000E+00  0.00000000E+00  0.00000000E+00
  0.00000000E+00  0.00000000E+00  0.00000000E+00
  0.00000000E+00  0.00000000E+00  0.00000000E+00
  0.00000000E+00  0.00000000E+00  0.00000000E+00
  0.00000000E+00  0.00000000E+00  0.00000000E+00
  0.00000000E+00  0.00000000E+00  0.00000000E+00
  0.00000000E+00  0.00000000E+00  0.00000000E+00
  0.00000000E+00  0.00000000E+00  0.00000000E+00
  0.00000000E+00  0.00000000E+00  0.00000000E+00
  0.00000000E+00  0.00000000E+00  0.00000000E+00
  0.00000000E+00  0.00000000E+00  0.00000000E+00
  0.00000000E+00  0.00000000E+00  0.00000000E+00
  0.00000000E+00  0.00000000E+00  0.00000000E+00
  0.00000000E+00  0.00000000E+00  0.00000000E+00
  0.00000000E+00  0.00000000E+00  0.00000000E+00
  0.00000000E+00  0.00000000E+00  0.00000000E+00
  0.00000000E+00  0.00000000E+00  0.00000000E+00
  0.00000000E+00  0.00000000E+00  0.00000000E+00
  0.00000000E+00  0.00000000E+00  0.00000000E+00
  0.00000000E+00  0.00000000E+00  0.00000000E+00
  0.00000000E+00  0.00000000E+00  0.00000000E+00
  0.00000000E+00  0.00000000E+00  0.00000000E+00
  0.00000000E+00  0.00000000E+00  0.00000000E+00
  0.00000000E+00  0.00000000E+00  0.00000000E+00
  0.00000000E+00  0.00000000E+00  0.00000000E+00
  0.00000000E+00  0.00000000E+00  0.00000000E+00
  0.00000000E+00  0.00000000E+00  0.00000000E+00
  0.00000000E+00  0.00000000E+00  0.00000000E+00
  0.00000000E+00  0.00000000E+00  0.00000000E+00
  0.00000000E+00  0.00000000E+00  0.00000000E+00
  0.00000000E+00  0.00000000E+00  0.00000000E+00
  0.00000000E+00  0.00000000E+00  0.00000000E+00
  0.00000000E+00  0.00000000E+00  0.00000000E+00
  0.00000000E+00  0.00000000E+00  0.00000000E+00
  0.00000000E+00  0.00000000E+00  0.00000000E+00
  0.00000000E+00  0.00000000E+00  0.00000000E+00
  0.00000000E+00  0.00000000E+00  0.00000000E+00
  0.00000000E+00  0.00000000E+00  0.00000000E+00
  0.00000000E+00  0.00000000E+00  0.00000000E+00
  0.00000000E+00  0.00000000E+00  0.00000000E+00
  0.00000000E+00  0.00000000E+00  0.00000000E+00
  0.00000000E+00  0.00000000E+00  0.00000000E+00
  0.00000000E+00  0.00000000E+00  0.00000000E+00
  0.00000000E+00  0.00000000E+00  0.00000000E+00
  0.00000000E+00  0.00000000E+00  0.00000000E+00
  0.00000000E+00  0.00000000E+00  0.00000000E+00
  0.00000000E+00  0.00000000E+00  0.00000000E+00
  0.00000000E+00  0.00000000E+00  0.00000000E+00
  0.00000000E+00  0.00000000E+00  0.00000000E+00
  0.00000000E+00  0.00000000E+00  0.00000000E+00
  0.00000000E+00  0.00000000E+00  0.00000000E+00
  0.00000000E+00  0.00000000E+00  0.00000000E+00
  0.00000000E+00  0.00000000E+00  0.00000000E+00
  0.00000000E+00  0.00000000E+00  0.00000000E+00
  0.00000000E+00  0.00000000E+00  0.00000000E+00
  0.00000000E+00  0.00000000E+00  0.00000000E+00
  0.00000000E+00  0.00000000E+00  0.00000000E+00
  0.00000000E+00  0.00000000E+00  0.00000000E+00
  0.00000000E+00  0.00000000E+00  0.00000000E+00
  0.00000000E+00  0.00000000E+00  0.00000000E+00
  0.00000000E+00  0.00000000E+00  0.00000000E+00
  0.00000000E+00  0.00000000E+00  0.00000000E+00
  0.00000000E+00  0.00000000E+00  0.00000000E+00
  0.00000000E+00  0.00000000E+00  0.00000000E+00
  0.00000000E+00  0.00000000E+00  0.00000000E+00
  0.00000000E+00  0.00000000E+00  0.00000000E+00
  0.00000000E+00  0.00000000E+00  0.00000000E+00
  0.00000000E+00  0.00000000E+00  0.00000000E+00
  0.00000000E+00  0.00000000E+00  0.00000000E+00
  0.00000000E+00  0.00000000E+00  0.00000000E+00
  0.00000000E+00  0.00000000E+00  0.00000000E+00
  0.00000000E+00  0.00000000E+00  0.00000000E+00
  0.00000000E+00  0.00000000E+00  0.00000000E+00
  0.00000000E+00  0.00000000E+00  0.00000000E+00
  0.00000000E+00  0.00000000E+00  0.00000000E+00
  0.00000000E+00  0.00000000E+00  0.00000000E+00
  0.00000000E+00  0.00000000E+00  0.00000000E+00
  0.00000000E+00  0.00000000E+00  0.00000000E+00
  0.00000000E+00  0.00000000E+00  0.00000000E+00
  0.00000000E+00  0.00000000E+00  0.00000000E+00
  0.00000000E+00  0.00000000E+00  0.00000000E+00
  0.00000000E+00  0.00000000E+00  0.00000000E+00
  0.00000000E+00  0.00000000E+00  0.00000000E+00
  0.00000000E+00  0.00000000E+00  0.00000000E+00
  0.00000000E+00  0.00000000E+00  0.00000000E+00
  0.00000000E+00  0.00000000E+00  0.00000000E+00
  0.00000000E+00  0.00000000E+00  0.00000000E+00
  0.00000000E+00  0.00000000E+00  0.00000000E+00
  0.00000000E+00  0.00000000E+00  0.00000000E+00
  0.00000000E+00  0.00000000E+00  0.00000000E+00
  0.00000000E+00  0.00000000E+00  0.00000000E+00
  0.00000000E+00  0.00000000E+00  0.00000000E+00
  0.00000000E+00  0.00000000E+00  0.00000000E+00
  0.00000000E+00  0.00000000E+00  0.00000000E+00
  0.00000000E+00  0.00000000E+00  0.00000000E+00
  0.00000000E+00  0.00000000E+00  0.00000000E+00
  0.00000000E+00  0.00000000E+00  0.00000000E+00
  0.00000000E+00  0.00000000E+00  0.00000000E+00
  0.00000000E+00  0.00000000E+00  0.00000000E+00
  0.00000000E+00  0.00000000E+00  0.00000000E+00
  0.00000000E+00  0.00000000E+00  0.00000000E+00
  0.00000000E+00  0.00000000E+00  0.00000000E+00
  0.00000000E+00  0.00000000E+00  0.00000000E+00
  0.00000000E+00  0.00000000E+00  0.00000000E+00
  0.00000000E+00  0.00000000E+00  0.00000000E+00
  0.00000000E+00  0.00000000E+00  0.00000000E+00
  0.00000000E+00  0.00000000E+00  0.00000000E+00
  0.00000000E+00  0.00000000E+00  0.00000000E+00
  0.00000000E+00  0.00000000E+00  0.00000000E+00
  0.00000000E+00  0.00000000E+00  0.00000000E+00
  0.00000000E+00  0.00000000E+00  0.00000000E+00
  0.00000000E+00  0.00000000E+00  0.00000000E+00
  0.00000000E+00  0.00000000E+00  0.00000000E+00
  0.00000000E+00  0.00000000E+00  0.00000000E+00
  0.00000000E+00  0.00000000E+00  0.00000000E+00
  0.00000000E+00  0.00000000E+00  0.00000000E+00
  0.00000000E+00  0.00000000E+00  0.00000000E+00
  0.00000000E+00  0.00000000E+00  0.00000000E+00
  0.00000000E+00  0.00000000E+00  0.00000000E+00
  0.00000000E+00  0.00000000E+00  0.00000000E+00
  0.00000000E+00  0.00000000E+00  0.00000000E+00
  0.00000000E+00  0.00000000E+00  0.00000000E+00
  0.00000000E+00  0.00000000E+00  0.00000000E+00
  0.00000000E+00  0.00000000E+00  0.00000000E+00
  0.00000000E+00  0.00000000E+00  0.00000000E+00
  0.00000000E+00  0.00000000E+00  0.00000000E+00
  0.00000000E+00  0.00000000E+00  0.00000000E+00
  0.00000000E+00  0.00000000E+00  0.00000000E+00
  0.00000000E+00  0.00000000E+00  0.00000000E+00
  0.00000000E+00  0.00000000E+00  0.00000000E+00
  0.00000000E+00  0.00000000E+00  0.00000000E+00
  0.00000000E+00  0.00000000E+00  0.00000000E+00
  0.00000000E+00  0.00000000E+00  0.00000000E+00
  0.00000000E+00  0.00000000E+00  0.00000000E+00
  0.00000000E+00  0.00000000E+00  0.00000000E+00
  0.00000000E+00  0.00000000E+00  0.00000000E+00
  0.00000000E+00  0.00000000E+00  0.00000000E+00
  0.00000000E+00  0.00000000E+00  0.00000000E+00
  0.00000000E+00  0.00000000E+00  0.00000000E+00
  0.00000000E+00  0.00000000E+00  0.00000000E+00
  0.00000000E+00  0.00000000E+00  0.00000000E+00
  0.00000000E+00  0.00000000E+00  0.00000000E+00
  0.00000000E+00  0.00000000E+00  0.00000000E+00
  0.00000000E+00  0.00000000E+00  0.00000000E+00
  0.00000000E+00  0.00000000E+00  0.00000000E+00
  0.00000000E+00  0.00000000E+00  0.00000000E+00
  0.00000000E+00  0.00000000E+00  0.00000000E+00
  0.00000000E+00  0.00000000E+00  0.00000000E+00
  0.00000000E+00  0.00000000E+00  0.00000000E+00
  0.00000000E+00  0.00000000E+00  0.00000000E+00
  0.00000000E+00  0.00000000E+00  0.00000000E+00
  0.00000000E+00  0.00000000E+00  0.00000000E+00
  0.00000000E+00  0.00000000E+00  0.00000000E+00
  0.00000000E+00  0.00000000E+00  0.00000000E+00
  0.00000000E+00  0.00000000E+00  0.00000000E+00
  0.00000000E+00  0.00000000E+00  0.00000000E+00
  0.00000000E+00  0.00000000E+00  0.00000000E+00
  0.00000000E+00  0.00000000E+00  0.00000000E+00
  0.00000000E+00  0.00000000E+00  0.00000000E+00
  0.00000000E+00  0.00000000E+00  0.00000000E+00
  0.00000000E+00  0.00000000E+00  0.00000000E+00
  0.00000000E+00  0.00000000E+00  0.00000000E+00
  0.00000000E+00  0.00000000E+00  0.00000000E+00
  0.00000000E+00  0.00000000E+00  0.00000000E+00
  0.00000000E+00  0.00000000E+00  0.00000000E+00
  0.00000000E+00  0.00000000E+00  0.00000000E+00
  0.00000000E+00  0.00000000E+00  0.00000000E+00
  0.00000000E+00  0.00000000E+00  0.00000000E+00
  0.00000000E+00  0.00000000E+00  0.00000000E+00
  0.00000000E+00  0.00000000E+00  0.00000000E+00
  0.00000000E+00  0.00000000E+00  0.00000000E+00
  0.00000000E+00  0.00000000E+00  0.00000000E+00
  0.00000000E+00  0.00000000E+00  0.00000000E+00
  0.00000000E+00  0.00000000E+00  0.00000000E+00
  0.00000000E+00  0.00000000E+00  0.00000000E+00
  0.00000000E+00  0.00000000E+00  0.00000000E+00
  0.00000000E+00  0.00000000E+00  0.00000000E+00
  0.00000000E+00  0.00000000E+00  0.00000000E+00
  0.00000000E+00  0.00000000E+00  0.00000000E+00
  0.00000000E+00  0.00000000E+00  0.00000000E+00
  0.00000000E+00  0.00000000E+00  0.00000000E+00
  0.00000000E+00  0.00000000E+00  0.00000000E+00
  0.00000000E+00  0.00000000E+00  0.00000000E+00
  0.00000000E+00  0.00000000E+00  0.00000000E+00
  0.00000000E+00  0.00000000E+00  0.00000000E+00
  0.00000000E+00  0.00000000E+00  0.00000000E+00
  0.00000000E+00  0.00000000E+00  0.00000000E+00
  0.00000000E+00  0.00000000E+00  0.00000000E+00
  0.00000000E+00  0.00000000E+00  0.00000000E+00
  0.00000000E+00  0.00000000E+00  0.00000000E+00
  0.00000000E+00  0.00000000E+00  0.00000000E+00
  0.00000000E+00  0.00000000E+00  0.00000000E+00
  0.00000000E+00  0.00000000E+00  0.00000000E+00
  0.00000000E+00  0.00000000E+00  0.00000000E+00
  0.00000000E+00  0.00000000E+00  0.00000000E+00
  0.00000000E+00  0.00000000E+00  0.00000000E+00
  0.00000000E+00  0.00000000E+00  0.00000000E+00
  0.00000000E+00  0.00000000E+00  0.00000000E+00
  0.00000000E+00  0.00000000E+00  0.00000000E+00
  0.00000000E+00  0.00000000E+00  0.00000000E+00
  0.00000000E+00  0.00000000E+00  0.00000000E+00
  0.00000000E+00  0.00000000E+00  0.00000000E+00
  0.00000000E+00  0.00000000E+00  0.00000000E+00
  0.00000000E+00  0.00000000E+00  0.00000000E+00
  0.00000000E+00  0.00000000E+00  0.00000000E+00
  0.00000000E+00  0.00000000E+00  0.00000000E+00
  0.00000000E+00  0.00000000E+00  0.00000000E+00
  0.00000000E+00  0.00000000E+00  0.00000000E+00
  0.00000000E+00  0.00000000E+00  0.00000000E+00
  0.00000000E+00  0.00000000E+00  0.00000000E+00
  0.00000000E+00  0.00000000E+00  0.00000000E+00
  0.00000000E+00  0.00000000E+00  0.00000000E+00
  0.00000000E+00  0.00000000E+00  0.00000000E+00
  0.00000000E+00  0.00000000E+00  0.00000000E+00
