Ni  O                                   
    1.000000000000000     
    10.5415000915999997    0.0000000000000000    0.0000000000000000
     5.2707500457999998    9.1292068732999994    0.0000000000000000
     0.0000000000000000    0.0000000000000000   28.5415000916000032
   Ni   O 
   125   125
Direct
 -0.0000000000000000 -0.0000000000000000 -0.0986598093311077
  0.0000000000000000 -0.0000000000000000  0.0203782031584835
  0.0000000000000000  0.0000000000000000  0.1408906510619084
  0.0000000000000000  0.0000000000000000  0.2553334574065282
  0.0000000000000000  0.0000000000000000  0.3682589980298476
 -0.0000000000000000  0.2000000029999995 -0.0986598093311077
  0.0000000000000000  0.2000000029999995  0.0203782031584835
  0.0000000000000000  0.2000000029999995  0.1408906510619084
  0.0000000000000000  0.2000000029999995  0.2553334574065282
  0.0000000000000000  0.2000000029999995  0.3682589980298476
 -0.0000000000000000  0.4000000059999991 -0.0986598093311077
 -0.0000000000000000  0.4000000059999991  0.0203782031584835
  0.0000000000000000  0.4000000059999991  0.1408906510619084
 -0.0000000000000000  0.4000000059999991  0.2553334574065282
 -0.0000000000000000  0.4000000059999991  0.3682589980298476
  0.0000000000000000  0.6000000240000034 -0.0986598093311077
 -0.0000000000000000  0.6000000240000034  0.0203782031584835
  0.0000000000000000  0.6000000240000034  0.1408906510619084
  0.0000000000000000  0.6000000240000034  0.2553334574065282
 -0.0000000000000000  0.6000000240000034  0.3682589980298476
 -0.0000000000000000  0.8000000119999982 -0.0986598093311077
 -0.0000000000000000  0.8000000119999982  0.0203782031584835
  0.0000000000000000  0.8000000119999982  0.1408906510619084
 -0.0000000000000000  0.8000000119999982  0.2553334574065282
  0.0000000000000000  0.8000000119999982  0.3682589980298476
  0.2000000029999995  0.0000000000000000 -0.0986598093311077
  0.2000000029999995 -0.0000000000000000  0.0203782031584835
  0.2000000029999995 -0.0000000000000000  0.1408906510619084
  0.2000000029999995  0.0000000000000000  0.2553334574065282
  0.2000000029999995  0.0000000000000000  0.3682589980298476
  0.2000000029999995  0.2000000029999995 -0.0986598093311077
  0.2000000029999995  0.2000000029999995  0.0203782031584835
  0.2000000029999995  0.2000000029999995  0.1408906510619084
  0.2000000029999995  0.2000000029999995  0.2553334574065282
  0.2000000029999995  0.2000000029999995  0.3682589980298476
  0.2000000029999995  0.4000000059999991 -0.0986598093311077
  0.2000000029999995  0.4000000059999991  0.0203782031584835
  0.2000000029999995  0.4000000059999991  0.1408906510619084
  0.2000000029999995  0.4000000059999991  0.2553334574065282
  0.2000000029999995  0.4000000059999991  0.3682589980298476
  0.2000000029999995  0.6000000240000034 -0.0986598093311077
  0.2000000029999995  0.6000000240000034  0.0203782031584835
  0.2000000029999995  0.6000000240000034  0.1408906510619084
  0.2000000029999995  0.6000000240000034  0.2553334574065282
  0.2000000029999995  0.6000000240000034  0.3682589980298476
  0.2000000029999995  0.8000000119999982 -0.0986598093311077
  0.2000000029999995  0.8000000119999982  0.0203782031584835
  0.2000000029999995  0.8000000119999982  0.1408906510619084
  0.2000000029999995  0.8000000119999982  0.2553334574065282
  0.2000000029999995  0.8000000119999982  0.3682589980298476
  0.4000000059999991 -0.0000000000000000 -0.0986598093311077
  0.4000000059999991 -0.0000000000000000  0.0203782031584835
  0.4000000059999991  0.0000000000000000  0.1408906510619084
  0.4000000059999991  0.0000000000000000  0.2553334574065282
  0.4000000059999991 -0.0000000000000000  0.3682589980298476
  0.4000000059999991  0.2000000029999995 -0.0986598093311077
  0.4000000059999991  0.2000000029999995  0.0203782031584835
  0.4000000059999991  0.2000000029999995  0.1408906510619084
  0.4000000059999991  0.2000000029999995  0.2553334574065282
  0.4000000059999991  0.2000000029999995  0.3682589980298476
  0.4000000059999991  0.4000000059999991 -0.0986598093311077
  0.4000000059999991  0.4000000059999991  0.0203782031584835
  0.4000000059999991  0.4000000059999991  0.1408906510619084
  0.4000000059999991  0.4000000059999991  0.2553334574065282
  0.4000000059999991  0.4000000059999991  0.3682589980298476
  0.4000000059999991  0.6000000240000034 -0.0986598093311077
  0.4000000059999991  0.6000000240000034  0.0203782031584835
  0.4000000059999991  0.6000000240000034  0.1408906510619084
  0.4000000059999991  0.6000000240000034  0.2553334574065282
  0.4000000059999991  0.6000000240000034  0.3682589980298476
  0.4000000059999991  0.8000000119999982 -0.0986598093311077
  0.4000000059999991  0.8000000119999982  0.0203782031584835
  0.4000000059999991  0.8000000119999982  0.1408906510619084
  0.4000000059999991  0.8000000119999982  0.2553334574065282
  0.4000000059999991  0.8000000119999982  0.3682589980298476
  0.6000000240000034 -0.0000000000000000 -0.0986598093311077
  0.6000000240000034  0.0000000000000000  0.0203782031584835
  0.6000000240000034 -0.0000000000000000  0.1408906510619084
  0.6000000240000034  0.0000000000000000  0.2553334574065282
  0.6000000240000034  0.0000000000000000  0.3682589980298476
  0.6000000240000034  0.2000000029999995 -0.0986598093311077
  0.6000000240000034  0.2000000029999995  0.0203782031584835
  0.6000000240000034  0.2000000029999995  0.1408906510619084
  0.6000000240000034  0.2000000029999995  0.2553334574065282
  0.6000000240000034  0.2000000029999995  0.3682589980298476
  0.6000000240000034  0.4000000059999991 -0.0986598093311078
  0.6000000240000034  0.4000000059999991  0.0203782031584835
  0.6000000240000034  0.4000000059999991  0.1408906510619084
  0.6000000240000034  0.4000000059999991  0.2553334574065282
  0.6000000240000034  0.4000000059999991  0.3682589980298476
  0.6000000240000034  0.6000000240000034 -0.0986598093311077
  0.6000000240000034  0.6000000240000034  0.0203782031584835
  0.6000000240000034  0.6000000240000034  0.1408906510619084
  0.6000000240000034  0.6000000240000034  0.2553334574065282
  0.6000000240000034  0.6000000240000034  0.3682589980298476
  0.6000000240000034  0.8000000119999982 -0.0986598093311078
  0.6000000240000034  0.8000000119999982  0.0203782031584835
  0.6000000240000034  0.8000000119999982  0.1408906510619084
  0.6000000240000034  0.8000000119999982  0.2553334574065282
  0.6000000240000034  0.8000000119999982  0.3682589980298476
  0.8000000119999982  0.0000000000000000 -0.0986598093311077
  0.8000000119999982  0.0000000000000000  0.0203782031584835
  0.8000000119999982 -0.0000000000000000  0.1408906510619084
  0.8000000119999982  0.0000000000000000  0.2553334574065282
  0.8000000119999982  0.0000000000000000  0.3682589980298476
  0.8000000119999982  0.2000000029999995 -0.0986598093311077
  0.8000000119999982  0.2000000029999995  0.0203782031584835
  0.8000000119999982  0.2000000029999995  0.1408906510619084
  0.8000000119999982  0.2000000029999995  0.2553334574065282
  0.8000000119999982  0.2000000029999995  0.3682589980298476
  0.8000000119999982  0.4000000059999991 -0.0986598093311077
  0.8000000119999982  0.4000000059999991  0.0203782031584835
  0.8000000119999982  0.4000000059999991  0.1408906510619084
  0.8000000119999982  0.4000000059999991  0.2553334574065282
  0.8000000119999982  0.4000000059999991  0.3682589980298476
  0.8000000119999982  0.6000000240000034 -0.0986598093311077
  0.8000000119999982  0.6000000240000034  0.0203782031584835
  0.8000000119999982  0.6000000240000034  0.1408906510619084
  0.8000000119999982  0.6000000240000034  0.2553334574065282
  0.8000000119999982  0.6000000240000034  0.3682589980298476
  0.8000000119999982  0.8000000119999982 -0.0986598093311077
  0.8000000119999982  0.8000000119999982  0.0203782031584835
  0.8000000119999982  0.8000000119999982  0.1408906510619084
  0.8000000119999982  0.8000000119999982  0.2553334574065282
  0.8000000119999982  0.8000000119999982  0.3682589980298476
  0.1000000009999980  0.1000000009999980 -0.0384910877204046
  0.1000000009999980  0.1000000009999980  0.0813386915973143
  0.1000000009999980  0.1000000009999980  0.1992497242041923
  0.1000000009999980  0.1000000009999980  0.3103416542108596
  0.1000000009999980  0.1000000009999980  0.4233867581325558
  0.1000000009999980  0.3000000119999982 -0.0384910877204046
  0.1000000009999980  0.3000000119999982  0.0813386915973143
  0.1000000009999980  0.3000000119999982  0.1992497242041923
  0.1000000009999980  0.3000000119999982  0.3103416542108596
  0.1000000009999980  0.3000000119999982  0.4233867581325558
  0.1000000009999980  0.5000000000000000 -0.0384910877204046
  0.1000000009999980  0.5000000000000000  0.0813386915973143
  0.1000000009999980  0.5000000000000000  0.1992497242041923
  0.1000000009999980  0.5000000000000000  0.3103416542108596
  0.1000000009999980  0.5000000000000000  0.4233867581325558
  0.1000000009999980  0.6999999880000018 -0.0384910877204046
  0.1000000009999980  0.6999999880000018  0.0813386915973143
  0.1000000009999980  0.6999999880000018  0.1992497242041923
  0.1000000009999980  0.6999999880000018  0.3103416542108596
  0.1000000009999980  0.6999999880000018  0.4233867581325558
  0.1000000009999980  0.8999999760000037 -0.0384910877204046
  0.1000000009999980  0.8999999760000037  0.0813386915973143
  0.1000000009999980  0.8999999760000037  0.1992497242041923
  0.1000000009999980  0.8999999760000037  0.3103416542108596
  0.1000000009999980  0.8999999760000037  0.4233867581325558
  0.3000000119999982  0.1000000009999980 -0.0384910877204046
  0.3000000119999982  0.1000000009999980  0.0813386915973142
  0.3000000119999982  0.1000000009999980  0.1992497242041923
  0.3000000119999982  0.1000000009999980  0.3103416542108596
  0.3000000119999982  0.1000000009999980  0.4233867581325558
  0.3000000119999982  0.3000000119999982 -0.0384910877204046
  0.3000000119999982  0.3000000119999982  0.0813386915973142
  0.3000000119999982  0.3000000119999982  0.1992497242041923
  0.3000000119999982  0.3000000119999982  0.3103416542108596
  0.3000000119999982  0.3000000119999982  0.4233867581325558
  0.3000000119999982  0.5000000000000000 -0.0384910877204046
  0.3000000119999982  0.5000000000000000  0.0813386915973142
  0.3000000119999982  0.5000000000000000  0.1992497242041923
  0.3000000119999982  0.5000000000000000  0.3103416542108596
  0.3000000119999982  0.5000000000000000  0.4233867581325558
  0.3000000119999982  0.6999999880000018 -0.0384910877204046
  0.3000000119999982  0.6999999880000018  0.0813386915973142
  0.3000000119999982  0.6999999880000018  0.1992497242041923
  0.3000000119999982  0.6999999880000018  0.3103416542108596
  0.3000000119999982  0.6999999880000018  0.4233867581325558
  0.3000000119999982  0.8999999760000037 -0.0384910877204046
  0.3000000119999982  0.8999999760000037  0.0813386915973142
  0.3000000119999982  0.8999999760000037  0.1992497242041923
  0.3000000119999982  0.8999999760000037  0.3103416542108596
  0.3000000119999982  0.8999999760000037  0.4233867581325558
  0.5000000000000000  0.1000000009999980 -0.0384910877204046
  0.5000000000000000  0.1000000009999980  0.0813386915973142
  0.5000000000000000  0.1000000009999980  0.1992497242041923
  0.5000000000000000  0.1000000009999980  0.3103416542108596
  0.5000000000000000  0.1000000009999980  0.4233867581325558
  0.5000000000000000  0.3000000119999982 -0.0384910877204046
  0.5000000000000000  0.3000000119999982  0.0813386915973142
  0.5000000000000000  0.3000000119999982  0.1992497242041923
  0.5000000000000000  0.3000000119999982  0.3103416542108596
  0.5000000000000000  0.3000000119999982  0.4233867581325558
  0.5000000000000000  0.5000000000000000 -0.0384910877204046
  0.5000000000000000  0.5000000000000000  0.0813386915973142
  0.5000000000000000  0.5000000000000000  0.1992497242041923
  0.5000000000000000  0.5000000000000000  0.3103416542108596
  0.5000000000000000  0.5000000000000000  0.4233867581325558
  0.5000000000000000  0.6999999880000018 -0.0384910877204046
  0.5000000000000000  0.6999999880000018  0.0813386915973142
  0.5000000000000000  0.6999999880000018  0.1992497242041923
  0.5000000000000000  0.6999999880000018  0.3103416542108596
  0.5000000000000000  0.6999999880000018  0.4233867581325558
  0.5000000000000000  0.8999999760000037 -0.0384910877204046
  0.5000000000000000  0.8999999760000037  0.0813386915973142
  0.5000000000000000  0.8999999760000037  0.1992497242041923
  0.5000000000000000  0.8999999760000037  0.3103416542108596
  0.5000000000000000  0.8999999760000037  0.4233867581325558
  0.6999999880000018  0.1000000009999980 -0.0384910877204046
  0.6999999880000018  0.1000000009999980  0.0813386915973142
  0.6999999880000018  0.1000000009999980  0.1992497242041923
  0.6999999880000018  0.1000000009999980  0.3103416542108596
  0.6999999880000018  0.1000000009999980  0.4233867581325558
  0.6999999880000018  0.3000000119999982 -0.0384910877204046
  0.6999999880000018  0.3000000119999982  0.0813386915973143
  0.6999999880000018  0.3000000119999982  0.1992497242041923
  0.6999999880000018  0.3000000119999982  0.3103416542108596
  0.6999999880000018  0.3000000119999982  0.4233867581325558
  0.6999999880000018  0.5000000000000000 -0.0384910877204046
  0.6999999880000018  0.5000000000000000  0.0813386915973143
  0.6999999880000018  0.5000000000000000  0.1992497242041923
  0.6999999880000018  0.5000000000000000  0.3103416542108596
  0.6999999880000018  0.5000000000000000  0.4233867581325558
  0.6999999880000018  0.6999999880000018 -0.0384910877204046
  0.6999999880000018  0.6999999880000018  0.0813386915973143
  0.6999999880000018  0.6999999880000018  0.1992497242041923
  0.6999999880000018  0.6999999880000018  0.3103416542108596
  0.6999999880000018  0.6999999880000018  0.4233867581325558
  0.6999999880000018  0.8999999760000037 -0.0384910877204046
  0.6999999880000018  0.8999999760000037  0.0813386915973142
  0.6999999880000018  0.8999999760000037  0.1992497242041923
  0.6999999880000018  0.8999999760000037  0.3103416542108596
  0.6999999880000018  0.8999999760000037  0.4233867581325558
  0.8999999759999966  0.1000000009999980 -0.0384910877204046
  0.8999999759999966  0.1000000009999980  0.0813386915973142
  0.8999999759999966  0.1000000009999980  0.1992497242041923
  0.8999999759999966  0.1000000009999980  0.3103416542108596
  0.8999999759999966  0.1000000009999980  0.4233867581325558
  0.8999999760000037  0.3000000119999982 -0.0384910877204046
  0.8999999760000037  0.3000000119999982  0.0813386915973142
  0.8999999760000037  0.3000000119999982  0.1992497242041923
  0.8999999760000037  0.3000000119999982  0.3103416542108596
  0.8999999760000037  0.3000000119999982  0.4233867581325558
  0.8999999760000037  0.5000000000000000 -0.0384910877204046
  0.8999999760000037  0.5000000000000000  0.0813386915973142
  0.8999999760000037  0.5000000000000000  0.1992497242041923
  0.8999999760000037  0.5000000000000000  0.3103416542108596
  0.8999999760000037  0.5000000000000000  0.4233867581325558
  0.8999999760000037  0.6999999880000018 -0.0384910877204046
  0.8999999760000037  0.6999999880000018  0.0813386915973142
  0.8999999760000037  0.6999999880000018  0.1992497242041923
  0.8999999760000037  0.6999999880000018  0.3103416542108596
  0.8999999760000037  0.6999999880000018  0.4233867581325558
  0.8999999759999966  0.8999999760000037 -0.0384910877204046
  0.8999999759999966  0.8999999760000037  0.0813386915973142
  0.8999999759999966  0.8999999760000037  0.1992497242041923
  0.8999999759999966  0.8999999760000037  0.3103416542108596
  0.8999999759999966  0.8999999760000037  0.4233867581325558
 
  0.00000000E+00  0.00000000E+00  0.00000000E+00
  0.00000000E+00  0.00000000E+00  0.00000000E+00
  0.00000000E+00  0.00000000E+00  0.00000000E+00
  0.00000000E+00  0.00000000E+00  0.00000000E+00
  0.00000000E+00  0.00000000E+00  0.00000000E+00
  0.00000000E+00  0.00000000E+00  0.00000000E+00
  0.00000000E+00  0.00000000E+00  0.00000000E+00
  0.00000000E+00  0.00000000E+00  0.00000000E+00
  0.00000000E+00  0.00000000E+00  0.00000000E+00
  0.00000000E+00  0.00000000E+00  0.00000000E+00
  0.00000000E+00  0.00000000E+00  0.00000000E+00
  0.00000000E+00  0.00000000E+00  0.00000000E+00
  0.00000000E+00  0.00000000E+00  0.00000000E+00
  0.00000000E+00  0.00000000E+00  0.00000000E+00
  0.00000000E+00  0.00000000E+00  0.00000000E+00
  0.00000000E+00  0.00000000E+00  0.00000000E+00
  0.00000000E+00  0.00000000E+00  0.00000000E+00
  0.00000000E+00  0.00000000E+00  0.00000000E+00
  0.00000000E+00  0.00000000E+00  0.00000000E+00
  0.00000000E+00  0.00000000E+00  0.00000000E+00
  0.00000000E+00  0.00000000E+00  0.00000000E+00
  0.00000000E+00  0.00000000E+00  0.00000000E+00
  0.00000000E+00  0.00000000E+00  0.00000000E+00
  0.00000000E+00  0.00000000E+00  0.00000000E+00
  0.00000000E+00  0.00000000E+00  0.00000000E+00
  0.00000000E+00  0.00000000E+00  0.00000000E+00
  0.00000000E+00  0.00000000E+00  0.00000000E+00
  0.00000000E+00  0.00000000E+00  0.00000000E+00
  0.00000000E+00  0.00000000E+00  0.00000000E+00
  0.00000000E+00  0.00000000E+00  0.00000000E+00
  0.00000000E+00  0.00000000E+00  0.00000000E+00
  0.00000000E+00  0.00000000E+00  0.00000000E+00
  0.00000000E+00  0.00000000E+00  0.00000000E+00
  0.00000000E+00  0.00000000E+00  0.00000000E+00
  0.00000000E+00  0.00000000E+00  0.00000000E+00
  0.00000000E+00  0.00000000E+00  0.00000000E+00
  0.00000000E+00  0.00000000E+00  0.00000000E+00
  0.00000000E+00  0.00000000E+00  0.00000000E+00
  0.00000000E+00  0.00000000E+00  0.00000000E+00
  0.00000000E+00  0.00000000E+00  0.00000000E+00
  0.00000000E+00  0.00000000E+00  0.00000000E+00
  0.00000000E+00  0.00000000E+00  0.00000000E+00
  0.00000000E+00  0.00000000E+00  0.00000000E+00
  0.00000000E+00  0.00000000E+00  0.00000000E+00
  0.00000000E+00  0.00000000E+00  0.00000000E+00
  0.00000000E+00  0.00000000E+00  0.00000000E+00
  0.00000000E+00  0.00000000E+00  0.00000000E+00
  0.00000000E+00  0.00000000E+00  0.00000000E+00
  0.00000000E+00  0.00000000E+00  0.00000000E+00
  0.00000000E+00  0.00000000E+00  0.00000000E+00
  0.00000000E+00  0.00000000E+00  0.00000000E+00
  0.00000000E+00  0.00000000E+00  0.00000000E+00
  0.00000000E+00  0.00000000E+00  0.00000000E+00
  0.00000000E+00  0.00000000E+00  0.00000000E+00
  0.00000000E+00  0.00000000E+00  0.00000000E+00
  0.00000000E+00  0.00000000E+00  0.00000000E+00
  0.00000000E+00  0.00000000E+00  0.00000000E+00
  0.00000000E+00  0.00000000E+00  0.00000000E+00
  0.00000000E+00  0.00000000E+00  0.00000000E+00
  0.00000000E+00  0.00000000E+00  0.00000000E+00
  0.00000000E+00  0.00000000E+00  0.00000000E+00
  0.00000000E+00  0.00000000E+00  0.00000000E+00
  0.00000000E+00  0.00000000E+00  0.00000000E+00
  0.00000000E+00  0.00000000E+00  0.00000000E+00
  0.00000000E+00  0.00000000E+00  0.00000000E+00
  0.00000000E+00  0.00000000E+00  0.00000000E+00
  0.00000000E+00  0.00000000E+00  0.00000000E+00
  0.00000000E+00  0.00000000E+00  0.00000000E+00
  0.00000000E+00  0.00000000E+00  0.00000000E+00
  0.00000000E+00  0.00000000E+00  0.00000000E+00
  0.00000000E+00  0.00000000E+00  0.00000000E+00
  0.00000000E+00  0.00000000E+00  0.00000000E+00
  0.00000000E+00  0.00000000E+00  0.00000000E+00
  0.00000000E+00  0.00000000E+00  0.00000000E+00
  0.00000000E+00  0.00000000E+00  0.00000000E+00
  0.00000000E+00  0.00000000E+00  0.00000000E+00
  0.00000000E+00  0.00000000E+00  0.00000000E+00
  0.00000000E+00  0.00000000E+00  0.00000000E+00
  0.00000000E+00  0.00000000E+00  0.00000000E+00
  0.00000000E+00  0.00000000E+00  0.00000000E+00
  0.00000000E+00  0.00000000E+00  0.00000000E+00
  0.00000000E+00  0.00000000E+00  0.00000000E+00
  0.00000000E+00  0.00000000E+00  0.00000000E+00
  0.00000000E+00  0.00000000E+00  0.00000000E+00
  0.00000000E+00  0.00000000E+00  0.00000000E+00
  0.00000000E+00  0.00000000E+00  0.00000000E+00
  0.00000000E+00  0.00000000E+00  0.00000000E+00
  0.00000000E+00  0.00000000E+00  0.00000000E+00
  0.00000000E+00  0.00000000E+00  0.00000000E+00
  0.00000000E+00  0.00000000E+00  0.00000000E+00
  0.00000000E+00  0.00000000E+00  0.00000000E+00
  0.00000000E+00  0.00000000E+00  0.00000000E+00
  0.00000000E+00  0.00000000E+00  0.00000000E+00
  0.00000000E+00  0.00000000E+00  0.00000000E+00
  0.00000000E+00  0.00000000E+00  0.00000000E+00
  0.00000000E+00  0.00000000E+00  0.00000000E+00
  0.00000000E+00  0.00000000E+00  0.00000000E+00
  0.00000000E+00  0.00000000E+00  0.00000000E+00
  0.00000000E+00  0.00000000E+00  0.00000000E+00
  0.00000000E+00  0.00000000E+00  0.00000000E+00
  0.00000000E+00  0.00000000E+00  0.00000000E+00
  0.00000000E+00  0.00000000E+00  0.00000000E+00
  0.00000000E+00  0.00000000E+00  0.00000000E+00
  0.00000000E+00  0.00000000E+00  0.00000000E+00
  0.00000000E+00  0.00000000E+00  0.00000000E+00
  0.00000000E+00  0.00000000E+00  0.00000000E+00
  0.00000000E+00  0.00000000E+00  0.00000000E+00
  0.00000000E+00  0.00000000E+00  0.00000000E+00
  0.00000000E+00  0.00000000E+00  0.00000000E+00
  0.00000000E+00  0.00000000E+00  0.00000000E+00
  0.00000000E+00  0.00000000E+00  0.00000000E+00
  0.00000000E+00  0.00000000E+00  0.00000000E+00
  0.00000000E+00  0.00000000E+00  0.00000000E+00
  0.00000000E+00  0.00000000E+00  0.00000000E+00
  0.00000000E+00  0.00000000E+00  0.00000000E+00
  0.00000000E+00  0.00000000E+00  0.00000000E+00
  0.00000000E+00  0.00000000E+00  0.00000000E+00
  0.00000000E+00  0.00000000E+00  0.00000000E+00
  0.00000000E+00  0.00000000E+00  0.00000000E+00
  0.00000000E+00  0.00000000E+00  0.00000000E+00
  0.00000000E+00  0.00000000E+00  0.00000000E+00
  0.00000000E+00  0.00000000E+00  0.00000000E+00
  0.00000000E+00  0.00000000E+00  0.00000000E+00
  0.00000000E+00  0.00000000E+00  0.00000000E+00
  0.00000000E+00  0.00000000E+00  0.00000000E+00
  0.00000000E+00  0.00000000E+00  0.00000000E+00
  0.00000000E+00  0.00000000E+00  0.00000000E+00
  0.00000000E+00  0.00000000E+00  0.00000000E+00
  0.00000000E+00  0.00000000E+00  0.00000000E+00
  0.00000000E+00  0.00000000E+00  0.00000000E+00
  0.00000000E+00  0.00000000E+00  0.00000000E+00
  0.00000000E+00  0.00000000E+00  0.00000000E+00
  0.00000000E+00  0.00000000E+00  0.00000000E+00
  0.00000000E+00  0.00000000E+00  0.00000000E+00
  0.00000000E+00  0.00000000E+00  0.00000000E+00
  0.00000000E+00  0.00000000E+00  0.00000000E+00
  0.00000000E+00  0.00000000E+00  0.00000000E+00
  0.00000000E+00  0.00000000E+00  0.00000000E+00
  0.00000000E+00  0.00000000E+00  0.00000000E+00
  0.00000000E+00  0.00000000E+00  0.00000000E+00
  0.00000000E+00  0.00000000E+00  0.00000000E+00
  0.00000000E+00  0.00000000E+00  0.00000000E+00
  0.00000000E+00  0.00000000E+00  0.00000000E+00
  0.00000000E+00  0.00000000E+00  0.00000000E+00
  0.00000000E+00  0.00000000E+00  0.00000000E+00
  0.00000000E+00  0.00000000E+00  0.00000000E+00
  0.00000000E+00  0.00000000E+00  0.00000000E+00
  0.00000000E+00  0.00000000E+00  0.00000000E+00
  0.00000000E+00  0.00000000E+00  0.00000000E+00
  0.00000000E+00  0.00000000E+00  0.00000000E+00
  0.00000000E+00  0.00000000E+00  0.00000000E+00
  0.00000000E+00  0.00000000E+00  0.00000000E+00
  0.00000000E+00  0.00000000E+00  0.00000000E+00
  0.00000000E+00  0.00000000E+00  0.00000000E+00
  0.00000000E+00  0.00000000E+00  0.00000000E+00
  0.00000000E+00  0.00000000E+00  0.00000000E+00
  0.00000000E+00  0.00000000E+00  0.00000000E+00
  0.00000000E+00  0.00000000E+00  0.00000000E+00
  0.00000000E+00  0.00000000E+00  0.00000000E+00
  0.00000000E+00  0.00000000E+00  0.00000000E+00
  0.00000000E+00  0.00000000E+00  0.00000000E+00
  0.00000000E+00  0.00000000E+00  0.00000000E+00
  0.00000000E+00  0.00000000E+00  0.00000000E+00
  0.00000000E+00  0.00000000E+00  0.00000000E+00
  0.00000000E+00  0.00000000E+00  0.00000000E+00
  0.00000000E+00  0.00000000E+00  0.00000000E+00
  0.00000000E+00  0.00000000E+00  0.00000000E+00
  0.00000000E+00  0.00000000E+00  0.00000000E+00
  0.00000000E+00  0.00000000E+00  0.00000000E+00
  0.00000000E+00  0.00000000E+00  0.00000000E+00
  0.00000000E+00  0.00000000E+00  0.00000000E+00
  0.00000000E+00  0.00000000E+00  0.00000000E+00
  0.00000000E+00  0.00000000E+00  0.00000000E+00
  0.00000000E+00  0.00000000E+00  0.00000000E+00
  0.00000000E+00  0.00000000E+00  0.00000000E+00
  0.00000000E+00  0.00000000E+00  0.00000000E+00
  0.00000000E+00  0.00000000E+00  0.00000000E+00
  0.00000000E+00  0.00000000E+00  0.00000000E+00
  0.00000000E+00  0.00000000E+00  0.00000000E+00
  0.00000000E+00  0.00000000E+00  0.00000000E+00
  0.00000000E+00  0.00000000E+00  0.00000000E+00
  0.00000000E+00  0.00000000E+00  0.00000000E+00
  0.00000000E+00  0.00000000E+00  0.00000000E+00
  0.00000000E+00  0.00000000E+00  0.00000000E+00
  0.00000000E+00  0.00000000E+00  0.00000000E+00
  0.00000000E+00  0.00000000E+00  0.00000000E+00
  0.00000000E+00  0.00000000E+00  0.00000000E+00
  0.00000000E+00  0.00000000E+00  0.00000000E+00
  0.00000000E+00  0.00000000E+00  0.00000000E+00
  0.00000000E+00  0.00000000E+00  0.00000000E+00
  0.00000000E+00  0.00000000E+00  0.00000000E+00
  0.00000000E+00  0.00000000E+00  0.00000000E+00
  0.00000000E+00  0.00000000E+00  0.00000000E+00
  0.00000000E+00  0.00000000E+00  0.00000000E+00
  0.00000000E+00  0.00000000E+00  0.00000000E+00
  0.00000000E+00  0.00000000E+00  0.00000000E+00
  0.00000000E+00  0.00000000E+00  0.00000000E+00
  0.00000000E+00  0.00000000E+00  0.00000000E+00
  0.00000000E+00  0.00000000E+00  0.00000000E+00
  0.00000000E+00  0.00000000E+00  0.00000000E+00
  0.00000000E+00  0.00000000E+00  0.00000000E+00
  0.00000000E+00  0.00000000E+00  0.00000000E+00
  0.00000000E+00  0.00000000E+00  0.00000000E+00
  0.00000000E+00  0.00000000E+00  0.00000000E+00
  0.00000000E+00  0.00000000E+00  0.00000000E+00
  0.00000000E+00  0.00000000E+00  0.00000000E+00
  0.00000000E+00  0.00000000E+00  0.00000000E+00
  0.00000000E+00  0.00000000E+00  0.00000000E+00
  0.00000000E+00  0.00000000E+00  0.00000000E+00
  0.00000000E+00  0.00000000E+00  0.00000000E+00
  0.00000000E+00  0.00000000E+00  0.00000000E+00
  0.00000000E+00  0.00000000E+00  0.00000000E+00
  0.00000000E+00  0.00000000E+00  0.00000000E+00
  0.00000000E+00  0.00000000E+00  0.00000000E+00
  0.00000000E+00  0.00000000E+00  0.00000000E+00
  0.00000000E+00  0.00000000E+00  0.00000000E+00
  0.00000000E+00  0.00000000E+00  0.00000000E+00
  0.00000000E+00  0.00000000E+00  0.00000000E+00
  0.00000000E+00  0.00000000E+00  0.00000000E+00
  0.00000000E+00  0.00000000E+00  0.00000000E+00
  0.00000000E+00  0.00000000E+00  0.00000000E+00
  0.00000000E+00  0.00000000E+00  0.00000000E+00
  0.00000000E+00  0.00000000E+00  0.00000000E+00
  0.00000000E+00  0.00000000E+00  0.00000000E+00
  0.00000000E+00  0.00000000E+00  0.00000000E+00
  0.00000000E+00  0.00000000E+00  0.00000000E+00
  0.00000000E+00  0.00000000E+00  0.00000000E+00
  0.00000000E+00  0.00000000E+00  0.00000000E+00
  0.00000000E+00  0.00000000E+00  0.00000000E+00
  0.00000000E+00  0.00000000E+00  0.00000000E+00
  0.00000000E+00  0.00000000E+00  0.00000000E+00
  0.00000000E+00  0.00000000E+00  0.00000000E+00
  0.00000000E+00  0.00000000E+00  0.00000000E+00
  0.00000000E+00  0.00000000E+00  0.00000000E+00
  0.00000000E+00  0.00000000E+00  0.00000000E+00
  0.00000000E+00  0.00000000E+00  0.00000000E+00
  0.00000000E+00  0.00000000E+00  0.00000000E+00
  0.00000000E+00  0.00000000E+00  0.00000000E+00
  0.00000000E+00  0.00000000E+00  0.00000000E+00
  0.00000000E+00  0.00000000E+00  0.00000000E+00
  0.00000000E+00  0.00000000E+00  0.00000000E+00
  0.00000000E+00  0.00000000E+00  0.00000000E+00
  0.00000000E+00  0.00000000E+00  0.00000000E+00
  0.00000000E+00  0.00000000E+00  0.00000000E+00
  0.00000000E+00  0.00000000E+00  0.00000000E+00
  0.00000000E+00  0.00000000E+00  0.00000000E+00
  0.00000000E+00  0.00000000E+00  0.00000000E+00
  0.00000000E+00  0.00000000E+00  0.00000000E+00
  0.00000000E+00  0.00000000E+00  0.00000000E+00
  0.00000000E+00  0.00000000E+00  0.00000000E+00
