Ni4 O4
1.0
       12.6498584747         0.0000000000         0.0000000000
        0.0000000000        12.6498584747         0.0000000000
        0.0000000000         0.0000000000        25.6498584747
   Ni    O
  108  108
Cartesian
     0.000000000         0.000000000         0.000000000
     0.000000000         0.000000000         4.216619617
     0.000000000         0.000000000         8.433239234
     0.000000000         4.216619617         0.000000000
     0.000000000         4.216619617         4.216619617
     0.000000000         4.216619617         8.433239234
     0.000000000         8.433239234         0.000000000
     0.000000000         8.433239234         4.216619617
     0.000000000         8.433239234         8.433239234
     4.216619617         0.000000000         0.000000000
     4.216619617         0.000000000         4.216619617
     4.216619617         0.000000000         8.433239234
     4.216619617         4.216619617         0.000000000
     4.216619617         4.216619617         4.216619617
     4.216619617         4.216619617         8.433239234
     4.216619617         8.433239234         0.000000000
     4.216619617         8.433239234         4.216619617
     4.216619617         8.433239234         8.433239234
     8.433239234         0.000000000         0.000000000
     8.433239234         0.000000000         4.216619617
     8.433239234         0.000000000         8.433239234
     8.433239234         4.216619617         0.000000000
     8.433239234         4.216619617         4.216619617
     8.433239234         4.216619617         8.433239234
     8.433239234         8.433239234         0.000000000
     8.433239234         8.433239234         4.216619617
     8.433239234         8.433239234         8.433239234
     0.000000000         2.108309809         2.108309809
     0.000000000         2.108309809         6.324929237
     0.000000000         2.108309809        10.541548478
     0.000000000         6.324929237         2.108309809
     0.000000000         6.324929237         6.324929237
     0.000000000         6.324929237        10.541548478
     0.000000000        10.541548478         2.108309809
     0.000000000        10.541548478         6.324929237
     0.000000000        10.541548478        10.541548478
     4.216619617         2.108309809         2.108309809
     4.216619617         2.108309809         6.324929237
     4.216619617         2.108309809        10.541548478
     4.216619617         6.324929237         2.108309809
     4.216619617         6.324929237         6.324929237
     4.216619617         6.324929237        10.541548478
     4.216619617        10.541548478         2.108309809
     4.216619617        10.541548478         6.324929237
     4.216619617        10.541548478        10.541548478
     8.433239234         2.108309809         2.108309809
     8.433239234         2.108309809         6.324929237
     8.433239234         2.108309809        10.541548478
     8.433239234         6.324929237         2.108309809
     8.433239234         6.324929237         6.324929237
     8.433239234         6.324929237        10.541548478
     8.433239234        10.541548478         2.108309809
     8.433239234        10.541548478         6.324929237
     8.433239234        10.541548478        10.541548478
     2.108309809         0.000000000         2.108309809
     2.108309809         0.000000000         6.324929237
     2.108309809         0.000000000        10.541548478
     2.108309809         4.216619617         2.108309809
     2.108309809         4.216619617         6.324929237
     2.108309809         4.216619617        10.541548478
     2.108309809         8.433239234         2.108309809
     2.108309809         8.433239234         6.324929237
     2.108309809         8.433239234        10.541548478
     6.324929237         0.000000000         2.108309809
     6.324929237         0.000000000         6.324929237
     6.324929237         0.000000000        10.541548478
     6.324929237         4.216619617         2.108309809
     6.324929237         4.216619617         6.324929237
     6.324929237         4.216619617        10.541548478
     6.324929237         8.433239234         2.108309809
     6.324929237         8.433239234         6.324929237
     6.324929237         8.433239234        10.541548478
    10.541548478         0.000000000         2.108309809
    10.541548478         0.000000000         6.324929237
    10.541548478         0.000000000        10.541548478
    10.541548478         4.216619617         2.108309809
    10.541548478         4.216619617         6.324929237
    10.541548478         4.216619617        10.541548478
    10.541548478         8.433239234         2.108309809
    10.541548478         8.433239234         6.324929237
    10.541548478         8.433239234        10.541548478
     2.108309809         2.108309809         0.000000000
     2.108309809         2.108309809         4.216619617
     2.108309809         2.108309809         8.433239234
     2.108309809         6.324929237         0.000000000
     2.108309809         6.324929237         4.216619617
     2.108309809         6.324929237         8.433239234
     2.108309809        10.541548478         0.000000000
     2.108309809        10.541548478         4.216619617
     2.108309809        10.541548478         8.433239234
     6.324929237         2.108309809         0.000000000
     6.324929237         2.108309809         4.216619617
     6.324929237         2.108309809         8.433239234
     6.324929237         6.324929237         0.000000000
     6.324929237         6.324929237         4.216619617
     6.324929237         6.324929237         8.433239234
     6.324929237        10.541548478         0.000000000
     6.324929237        10.541548478         4.216619617
     6.324929237        10.541548478         8.433239234
    10.541548478         2.108309809         0.000000000
    10.541548478         2.108309809         4.216619617
    10.541548478         2.108309809         8.433239234
    10.541548478         6.324929237         0.000000000
    10.541548478         6.324929237         4.216619617
    10.541548478         6.324929237         8.433239234
    10.541548478        10.541548478         0.000000000
    10.541548478        10.541548478         4.216619617
    10.541548478        10.541548478         8.433239234
     2.108309809         0.000000000         0.000000000
     2.108309809         0.000000000         4.216619617
     2.108309809         0.000000000         8.433239234
     2.108309809         4.216619617         0.000000000
     2.108309809         4.216619617         4.216619617
     2.108309809         4.216619617         8.433239234
     2.108309809         8.433239234         0.000000000
     2.108309809         8.433239234         4.216619617
     2.108309809         8.433239234         8.433239234
     6.324929237         0.000000000         0.000000000
     6.324929237         0.000000000         4.216619617
     6.324929237         0.000000000         8.433239234
     6.324929237         4.216619617         0.000000000
     6.324929237         4.216619617         4.216619617
     6.324929237         4.216619617         8.433239234
     6.324929237         8.433239234         0.000000000
     6.324929237         8.433239234         4.216619617
     6.324929237         8.433239234         8.433239234
    10.541548478         0.000000000         0.000000000
    10.541548478         0.000000000         4.216619617
    10.541548478         0.000000000         8.433239234
    10.541548478         4.216619617         0.000000000
    10.541548478         4.216619617         4.216619617
    10.541548478         4.216619617         8.433239234
    10.541548478         8.433239234         0.000000000
    10.541548478         8.433239234         4.216619617
    10.541548478         8.433239234         8.433239234
     2.108309809         2.108309809         2.108309809
     2.108309809         2.108309809         6.324929237
     2.108309809         2.108309809        10.541548478
     2.108309809         6.324929237         2.108309809
     2.108309809         6.324929237         6.324929237
     2.108309809         6.324929237        10.541548478
     2.108309809        10.541548478         2.108309809
     2.108309809        10.541548478         6.324929237
     2.108309809        10.541548478        10.541548478
     6.324929237         2.108309809         2.108309809
     6.324929237         2.108309809         6.324929237
     6.324929237         2.108309809        10.541548478
     6.324929237         6.324929237         2.108309809
     6.324929237         6.324929237         6.324929237
     6.324929237         6.324929237        10.541548478
     6.324929237        10.541548478         2.108309809
     6.324929237        10.541548478         6.324929237
     6.324929237        10.541548478        10.541548478
    10.541548478         2.108309809         2.108309809
    10.541548478         2.108309809         6.324929237
    10.541548478         2.108309809        10.541548478
    10.541548478         6.324929237         2.108309809
    10.541548478         6.324929237         6.324929237
    10.541548478         6.324929237        10.541548478
    10.541548478        10.541548478         2.108309809
    10.541548478        10.541548478         6.324929237
    10.541548478        10.541548478        10.541548478
     0.000000000         0.000000000         2.108309809
     0.000000000         0.000000000         6.324929237
     0.000000000         0.000000000        10.541548478
     0.000000000         4.216619617         2.108309809
     0.000000000         4.216619617         6.324929237
     0.000000000         4.216619617        10.541548478
     0.000000000         8.433239234         2.108309809
     0.000000000         8.433239234         6.324929237
     0.000000000         8.433239234        10.541548478
     4.216619617         0.000000000         2.108309809
     4.216619617         0.000000000         6.324929237
     4.216619617         0.000000000        10.541548478
     4.216619617         4.216619617         2.108309809
     4.216619617         4.216619617         6.324929237
     4.216619617         4.216619617        10.541548478
     4.216619617         8.433239234         2.108309809
     4.216619617         8.433239234         6.324929237
     4.216619617         8.433239234        10.541548478
     8.433239234         0.000000000         2.108309809
     8.433239234         0.000000000         6.324929237
     8.433239234         0.000000000        10.541548478
     8.433239234         4.216619617         2.108309809
     8.433239234         4.216619617         6.324929237
     8.433239234         4.216619617        10.541548478
     8.433239234         8.433239234         2.108309809
     8.433239234         8.433239234         6.324929237
     8.433239234         8.433239234        10.541548478
     0.000000000         2.108309809         0.000000000
     0.000000000         2.108309809         4.216619617
     0.000000000         2.108309809         8.433239234
     0.000000000         6.324929237         0.000000000
     0.000000000         6.324929237         4.216619617
     0.000000000         6.324929237         8.433239234
     0.000000000        10.541548478         0.000000000
     0.000000000        10.541548478         4.216619617
     0.000000000        10.541548478         8.433239234
     4.216619617         2.108309809         0.000000000
     4.216619617         2.108309809         4.216619617
     4.216619617         2.108309809         8.433239234
     4.216619617         6.324929237         0.000000000
     4.216619617         6.324929237         4.216619617
     4.216619617         6.324929237         8.433239234
     4.216619617        10.541548478         0.000000000
     4.216619617        10.541548478         4.216619617
     4.216619617        10.541548478         8.433239234
     8.433239234         2.108309809         0.000000000
     8.433239234         2.108309809         4.216619617
     8.433239234         2.108309809         8.433239234
     8.433239234         6.324929237         0.000000000
     8.433239234         6.324929237         4.216619617
     8.433239234         6.324929237         8.433239234
     8.433239234        10.541548478         0.000000000
     8.433239234        10.541548478         4.216619617
     8.433239234        10.541548478         8.433239234
