Ni  O 
 1.0000000000000000
    10.5415000915999997    0.0000000000000000    0.0000000000000000
     5.2707500457999998    9.1292068732999994    0.0000000000000000
     0.0000000000000000    0.0000000000000000   28.5415000916000032
 Ni  O  
 125 125
Cartesian
  0.0000000000000000  0.0000000000000000  0.0000000000000000
  0.0000000000000000  0.0000000000000000  2.1083000499445004
  0.0000000000000000  0.0000000000000000  4.2166000998890008
  0.0000000000000000  0.0000000000000000  6.3249003079560016
  0.0000000000000000  0.0000000000000000  8.4332001997780015
  1.0541500249722502  1.8258414020476206  0.0000000000000000
  1.0541500249722502  1.8258414020476206  2.1083000499445004
  1.0541500249722502  1.8258414020476206  4.2166000998890008
  1.0541500249722502  1.8258414020476206  6.3249003079560016
  1.0541500249722502  1.8258414020476206  8.4332001997780015
  2.1083000499445004  3.6516828040952412  0.0000000000000000
  2.1083000499445004  3.6516828040952412  2.1083000499445004
  2.1083000499445004  3.6516828040952412  4.2166000998890008
  2.1083000499445004  3.6516828040952412  6.3249003079560016
  2.1083000499445004  3.6516828040952412  8.4332001997780015
  3.1624501539780008  5.4775243430809644  0.0000000000000000
  3.1624501539780008  5.4775243430809644  2.1083000499445004
  3.1624501539780008  5.4775243430809644  4.2166000998890008
  3.1624501539780008  5.4775243430809644  6.3249003079560016
  3.1624501539780008  5.4775243430809644  8.4332001997780015
  4.2166000998890008  7.3033656081904823  0.0000000000000000
  4.2166000998890008  7.3033656081904823  2.1083000499445004
  4.2166000998890008  7.3033656081904823  4.2166000998890008
  4.2166000998890008  7.3033656081904823  6.3249003079560016
  4.2166000998890008  7.3033656081904823  8.4332001997780015
  2.1083000499445004  0.0000000000000000  0.0000000000000000
  2.1083000499445004  0.0000000000000000  2.1083000499445004
  2.1083000499445004  0.0000000000000000  4.2166000998890008
  2.1083000499445004  0.0000000000000000  6.3249003079560016
  2.1083000499445004  0.0000000000000000  8.4332001997780015
  3.1624500749167499  1.8258414020476206  0.0000000000000000
  3.1624500749167499  1.8258414020476206  2.1083000499445004
  3.1624500749167499  1.8258414020476206  4.2166000998890008
  3.1624500749167499  1.8258414020476206  6.3249003079560016
  3.1624500749167499  1.8258414020476206  8.4332001997780015
  4.2166000998890008  3.6516828040952412  0.0000000000000000
  4.2166000998890008  3.6516828040952412  2.1083000499445004
  4.2166000998890008  3.6516828040952412  4.2166000998890008
  4.2166000998890008  3.6516828040952412  6.3249003079560016
  4.2166000998890008  3.6516828040952412  8.4332001997780015
  5.2707502039225016  5.4775243430809644  0.0000000000000000
  5.2707502039225016  5.4775243430809644  2.1083000499445004
  5.2707502039225016  5.4775243430809644  4.2166000998890008
  5.2707502039225016  5.4775243430809644  6.3249003079560016
  5.2707502039225016  5.4775243430809644  8.4332001997780015
  6.3249001498335007  7.3033656081904823  0.0000000000000000
  6.3249001498335007  7.3033656081904823  2.1083000499445004
  6.3249001498335007  7.3033656081904823  4.2166000998890008
  6.3249001498335007  7.3033656081904823  6.3249003079560016
  6.3249001498335007  7.3033656081904823  8.4332001997780015
  4.2166000998890008  0.0000000000000000  0.0000000000000000
  4.2166000998890008  0.0000000000000000  2.1083000499445004
  4.2166000998890008  0.0000000000000000  4.2166000998890008
  4.2166000998890008  0.0000000000000000  6.3249003079560016
  4.2166000998890008  0.0000000000000000  8.4332001997780015
  5.2707501248612507  1.8258414020476206  0.0000000000000000
  5.2707501248612507  1.8258414020476206  2.1083000499445004
  5.2707501248612507  1.8258414020476206  4.2166000998890008
  5.2707501248612507  1.8258414020476206  6.3249003079560016
  5.2707501248612507  1.8258414020476206  8.4332001997780015
  6.3249001498334998  3.6516828040952412  0.0000000000000000
  6.3249001498334998  3.6516828040952412  2.1083000499445004
  6.3249001498334998  3.6516828040952412  4.2166000998890008
  6.3249001498334998  3.6516828040952412  6.3249003079560016
  6.3249001498334998  3.6516828040952412  8.4332001997780015
  7.3790502538670015  5.4775243430809644  0.0000000000000000
  7.3790502538670015  5.4775243430809644  2.1083000499445004
  7.3790502538670015  5.4775243430809644  4.2166000998890008
  7.3790502538670015  5.4775243430809644  6.3249003079560016
  7.3790502538670015  5.4775243430809644  8.4332001997780015
  8.4332001997780015  7.3033656081904823  0.0000000000000000
  8.4332001997780015  7.3033656081904823  2.1083000499445004
  8.4332001997780015  7.3033656081904823  4.2166000998890008
  8.4332001997780015  7.3033656081904823  6.3249003079560016
  8.4332001997780015  7.3033656081904823  8.4332001997780015
  6.3249003079560016  0.0000000000000000  0.0000000000000000
  6.3249003079560016  0.0000000000000000  2.1083000499445004
  6.3249003079560016  0.0000000000000000  4.2166000998890008
  6.3249003079560016  0.0000000000000000  6.3249003079560016
  6.3249003079560016  0.0000000000000000  8.4332001997780015
  7.3790503329282515  1.8258414020476206  0.0000000000000000
  7.3790503329282515  1.8258414020476206  2.1083000499445004
  7.3790503329282515  1.8258414020476206  4.2166000998890008
  7.3790503329282515  1.8258414020476206  6.3249003079560016
  7.3790503329282515  1.8258414020476206  8.4332001997780015
  8.4332003579005015  3.6516828040952412  0.0000000000000000
  8.4332003579005015  3.6516828040952412  2.1083000499445004
  8.4332003579005015  3.6516828040952412  4.2166000998890008
  8.4332003579005015  3.6516828040952412  6.3249003079560016
  8.4332003579005015  3.6516828040952412  8.4332001997780015
  9.4873504619340032  5.4775243430809644  0.0000000000000000
  9.4873504619340032  5.4775243430809644  2.1083000499445004
  9.4873504619340032  5.4775243430809644  4.2166000998890008
  9.4873504619340032  5.4775243430809644  6.3249003079560016
  9.4873504619340032  5.4775243430809644  8.4332001997780015
 10.5415004078450014  7.3033656081904823  0.0000000000000000
 10.5415004078450014  7.3033656081904823  2.1083000499445004
 10.5415004078450014  7.3033656081904823  4.2166000998890008
 10.5415004078450014  7.3033656081904823  6.3249003079560016
 10.5415004078450014  7.3033656081904823  8.4332001997780015
  8.4332001997780015  0.0000000000000000  0.0000000000000000
  8.4332001997780015  0.0000000000000000  2.1083000499445004
  8.4332001997780015  0.0000000000000000  4.2166000998890008
  8.4332001997780015  0.0000000000000000  6.3249003079560016
  8.4332001997780015  0.0000000000000000  8.4332001997780015
  9.4873502247502515  1.8258414020476206  0.0000000000000000
  9.4873502247502515  1.8258414020476206  2.1083000499445004
  9.4873502247502515  1.8258414020476206  4.2166000998890008
  9.4873502247502515  1.8258414020476206  6.3249003079560016
  9.4873502247502515  1.8258414020476206  8.4332001997780015
 10.5415002497225014  3.6516828040952412  0.0000000000000000
 10.5415002497225014  3.6516828040952412  2.1083000499445004
 10.5415002497225014  3.6516828040952412  4.2166000998890008
 10.5415002497225014  3.6516828040952412  6.3249003079560016
 10.5415002497225014  3.6516828040952412  8.4332001997780015
 11.5956503537560049  5.4775243430809644  0.0000000000000000
 11.5956503537560049  5.4775243430809644  2.1083000499445004
 11.5956503537560049  5.4775243430809644  4.2166000998890008
 11.5956503537560049  5.4775243430809644  6.3249003079560016
 11.5956503537560049  5.4775243430809644  8.4332001997780015
 12.6498002996669996  7.3033656081904823  0.0000000000000000
 12.6498002996669996  7.3033656081904823  2.1083000499445004
 12.6498002996669996  7.3033656081904823  4.2166000998890008
 12.6498002996669996  7.3033656081904823  6.3249003079560016
 12.6498002996669996  7.3033656081904823  8.4332001997780015
  1.5812250295522499  0.9129206964592068  1.0541500197015001
  1.5812250295522499  0.9129206964592068  3.1624501539780008
  1.5812250295522499  0.9129206964592068  5.2707500457999990
  1.5812250295522499  0.9129206964592068  7.3790499376219980
  1.5812250295522499  0.9129206964592068  9.4873498294439980
  2.6353750966905007  2.7387621715404822  1.0541500197015001
  2.6353750966905007  2.7387621715404822  3.1624501539780008
  2.6353750966905007  2.7387621715404822  5.2707500457999990
  2.6353750966905007  2.7387621715404822  7.3790499376219980
  2.6353750966905007  2.7387621715404822  9.4873498294439980
  3.6895250426014994  4.5646034366499988  1.0541500197015001
  3.6895250426014994  4.5646034366499988  3.1624501539780008
  3.6895250426014994  4.5646034366499988  5.2707500457999990
  3.6895250426014994  4.5646034366499988  7.3790499376219980
  3.6895250426014994  4.5646034366499988  9.4873498294439980
  4.7436749885124989  6.3904447017595167  1.0541500197015001
  4.7436749885124989  6.3904447017595167  3.1624501539780008
  4.7436749885124989  6.3904447017595167  5.2707500457999990
  4.7436749885124989  6.3904447017595167  7.3790499376219980
  4.7436749885124989  6.3904447017595167  9.4873498294439980
  5.7978249344234989  8.2162859668690356  1.0541500197015001
  5.7978249344234989  8.2162859668690356  3.1624501539780008
  5.7978249344234989  8.2162859668690356  5.2707500457999990
  5.7978249344234989  8.2162859668690356  7.3790499376219980
  5.7978249344234989  8.2162859668690356  9.4873498294439980
  3.6895251638287507  0.9129206964592068  1.0541500197015001
  3.6895251638287507  0.9129206964592068  3.1624501539780008
  3.6895251638287507  0.9129206964592068  5.2707500457999990
  3.6895251638287507  0.9129206964592068  7.3790499376219980
  3.6895251638287507  0.9129206964592068  9.4873498294439980
  4.7436752309670016  2.7387621715404822  1.0541500197015001
  4.7436752309670016  2.7387621715404822  3.1624501539780008
  4.7436752309670016  2.7387621715404822  5.2707500457999990
  4.7436752309670016  2.7387621715404822  7.3790499376219980
  4.7436752309670016  2.7387621715404822  9.4873498294439980
  5.7978251768780007  4.5646034366499988  1.0541500197015001
  5.7978251768780007  4.5646034366499988  3.1624501539780008
  5.7978251768780007  4.5646034366499988  5.2707500457999990
  5.7978251768780007  4.5646034366499988  7.3790499376219980
  5.7978251768780007  4.5646034366499988  9.4873498294439980
  6.8519751227889998  6.3904447017595167  1.0541500197015001
  6.8519751227889998  6.3904447017595167  3.1624501539780008
  6.8519751227889998  6.3904447017595167  5.2707500457999990
  6.8519751227889998  6.3904447017595167  7.3790499376219980
  6.8519751227889998  6.3904447017595167  9.4873498294439980
  7.9061250686999998  8.2162859668690356  1.0541500197015001
  7.9061250686999998  8.2162859668690356  3.1624501539780008
  7.9061250686999998  8.2162859668690356  5.2707500457999990
  7.9061250686999998  8.2162859668690356  7.3790499376219980
  7.9061250686999998  8.2162859668690356  9.4873498294439980
  5.7978250556507493  0.9129206964592068  1.0541500197015001
  5.7978250556507493  0.9129206964592068  3.1624501539780008
  5.7978250556507493  0.9129206964592068  5.2707500457999990
  5.7978250556507493  0.9129206964592068  7.3790499376219980
  5.7978250556507493  0.9129206964592068  9.4873498294439980
  6.8519751227889998  2.7387621715404822  1.0541500197015001
  6.8519751227889998  2.7387621715404822  3.1624501539780008
  6.8519751227889998  2.7387621715404822  5.2707500457999990
  6.8519751227889998  2.7387621715404822  7.3790499376219980
  6.8519751227889998  2.7387621715404822  9.4873498294439980
  7.9061250686999989  4.5646034366499988  1.0541500197015001
  7.9061250686999989  4.5646034366499988  3.1624501539780008
  7.9061250686999989  4.5646034366499988  5.2707500457999990
  7.9061250686999989  4.5646034366499988  7.3790499376219980
  7.9061250686999989  4.5646034366499988  9.4873498294439980
  8.9602750146109997  6.3904447017595167  1.0541500197015001
  8.9602750146109997  6.3904447017595167  3.1624501539780008
  8.9602750146109997  6.3904447017595167  5.2707500457999990
  8.9602750146109997  6.3904447017595167  7.3790499376219980
  8.9602750146109997  6.3904447017595167  9.4873498294439980
 10.0144249605219979  8.2162859668690356  1.0541500197015001
 10.0144249605219979  8.2162859668690356  3.1624501539780008
 10.0144249605219979  8.2162859668690356  5.2707500457999990
 10.0144249605219979  8.2162859668690356  7.3790499376219980
 10.0144249605219979  8.2162859668690356  9.4873498294439980
  7.9061249474727484  0.9129206964592068  1.0541500197015001
  7.9061249474727484  0.9129206964592068  3.1624501539780008
  7.9061249474727484  0.9129206964592068  5.2707500457999990
  7.9061249474727484  0.9129206964592068  7.3790499376219980
  7.9061249474727484  0.9129206964592068  9.4873498294439980
  8.9602750146109980  2.7387621715404822  1.0541500197015001
  8.9602750146109980  2.7387621715404822  3.1624501539780008
  8.9602750146109980  2.7387621715404822  5.2707500457999990
  8.9602750146109980  2.7387621715404822  7.3790499376219980
  8.9602750146109980  2.7387621715404822  9.4873498294439980
 10.0144249605219979  4.5646034366499988  1.0541500197015001
 10.0144249605219979  4.5646034366499988  3.1624501539780008
 10.0144249605219979  4.5646034366499988  5.2707500457999990
 10.0144249605219979  4.5646034366499988  7.3790499376219980
 10.0144249605219979  4.5646034366499988  9.4873498294439980
 11.0685749064329997  6.3904447017595167  1.0541500197015001
 11.0685749064329997  6.3904447017595167  3.1624501539780008
 11.0685749064329997  6.3904447017595167  5.2707500457999990
 11.0685749064329997  6.3904447017595167  7.3790499376219980
 11.0685749064329997  6.3904447017595167  9.4873498294439980
 12.1227248523439961  8.2162859668690356  1.0541500197015001
 12.1227248523439961  8.2162859668690356  3.1624501539780008
 12.1227248523439961  8.2162859668690356  5.2707500457999990
 12.1227248523439961  8.2162859668690356  7.3790499376219980
 12.1227248523439961  8.2162859668690356  9.4873498294439980
 10.0144248392947475  0.9129206964592068  1.0541500197015001
 10.0144248392947475  0.9129206964592068  3.1624501539780008
 10.0144248392947475  0.9129206964592068  5.2707500457999990
 10.0144248392947475  0.9129206964592068  7.3790499376219980
 10.0144248392947475  0.9129206964592068  9.4873498294439980
 11.0685749064329979  2.7387621715404822  1.0541500197015001
 11.0685749064329979  2.7387621715404822  3.1624501539780008
 11.0685749064329979  2.7387621715404822  5.2707500457999990
 11.0685749064329979  2.7387621715404822  7.3790499376219980
 11.0685749064329979  2.7387621715404822  9.4873498294439980
 12.1227248523439979  4.5646034366499988  1.0541500197015001
 12.1227248523439979  4.5646034366499988  3.1624501539780008
 12.1227248523439979  4.5646034366499988  5.2707500457999990
 12.1227248523439979  4.5646034366499988  7.3790499376219980
 12.1227248523439979  4.5646034366499988  9.4873498294439980
 13.1768747982549996  6.3904447017595167  1.0541500197015001
 13.1768747982549996  6.3904447017595167  3.1624501539780008
 13.1768747982549996  6.3904447017595167  5.2707500457999990
 13.1768747982549996  6.3904447017595167  7.3790499376219980
 13.1768747982549996  6.3904447017595167  9.4873498294439980
 14.2310247441659961  8.2162859668690356  1.0541500197015001
 14.2310247441659961  8.2162859668690356  3.1624501539780008
 14.2310247441659961  8.2162859668690356  5.2707500457999990
 14.2310247441659961  8.2162859668690356  7.3790499376219980
 14.2310247441659961  8.2162859668690356  9.4873498294439980
