Ni4 O4
1.0
   4.2166195807654887    0.0000000000000000    0.0000000000000003
   0.0000000000000007    4.2166195807654887    0.0000000000000003
   0.0000000000000000    0.0000000000000000    4.2166195807654887
Ni O
4 4
direct
   0.0000000000000000    0.0000000000000000    0.0000000000000000 Ni2+
   0.0000000000000000    0.5000000000000000    0.5000000000000000 Ni2+
   0.5000000000000000    0.0000000000000000    0.5000000000000000 Ni2+
   0.5000000000000000    0.5000000000000000    0.0000000000000000 Ni2+
   0.5000000000000000    0.0000000000000000    0.0000000000000000 O2-
   0.5000000000000000    0.5000000000000000    0.5000000000000000 O2-
   0.0000000000000000    0.0000000000000000    0.5000000000000000 O2-
   0.0000000000000000    0.5000000000000000    0.0000000000000000 O2-
