New structure                           
   1.00000000000000     
     0.0000000000000000  -15.1462217587961998    0.0000000000000000
     0.0000000000000000   -7.5731108793980804  -13.1170128144700993
    29.0000000000000000    0.0000000000000000    0.0000000000000000
   Ni  O
   252 1
Direct
  0.4444444444444429  0.4444444444444429  0.1043450678618401
  0.4444444444444429  0.7777777777777786  0.1043450678618401
  0.4444444444444429  0.1111111111111143  0.1043450678618401
  0.7777777777777786  0.4444444444444429  0.1043450678618401
  0.7777777777777786  0.7777777777777786  0.1043450678618401
  0.7777777777777786  0.1111111111111143  0.1043450678618401
  0.1111111111111143  0.4444444444444429  0.1043450678618401
  0.1111111111111143  0.7777777777777786  0.1043450678618401
  0.1111111111111143  0.1111111111111143  0.1043450678618401
  0.5555555555555571  0.5555555555555571  0.1731853762324935
  0.5555555555555571  0.8888888888888857  0.1731853762324935
  0.5555555555555571  0.2222222222222214  0.1731853762324935
  0.8888888888888857  0.5555555555555571  0.1731853762324935
  0.8888888888888857  0.8888888888888857  0.1731853762324935
  0.8888888888888857  0.2222222222222214  0.1731853762324935
  0.2222222222222214  0.5555555555555571  0.1731853762324935
  0.2222222222222214  0.8888888888888857  0.1731853762324935
  0.2222222222222214  0.2222222222222214  0.1731853762324935
  0.6666666666666643  0.6666666666666643  0.2424988840746228
  0.6666666666666643  0.0000000000000000  0.2424988840746228
  0.6666666666666643  0.3333333333333357  0.2424988840746228
  0.0000000000000000  0.6666666666666643  0.2424988840746228
  0.0000000000000000  0.0000000000000000  0.2424988840746228
  0.0000000000000000  0.3333333333333357  0.2424988840746228
  0.3333333333333357  0.6666666666666643  0.2424988840746228
  0.3333333333333357  0.0000000000000000  0.2424988840746228
  0.3333333333333357  0.3333333333333357  0.2424988840746228
  0.7777777777777786  0.7777777777777786  0.3117306553444550
  0.7777777777777786  0.1111111111111143  0.3117306553444550
  0.7777777777777786  0.4444444444444429  0.3117306553444550
  0.1111111111111143  0.7777777777777786  0.3117306553444550
  0.1111111111111143  0.1111111111111143  0.3117306553444550
  0.1111111111111143  0.4444444444444429  0.3117306553444550
  0.4444444444444429  0.7777777777777786  0.3117306553444550
  0.4444444444444429  0.1111111111111143  0.3117306553444550
  0.4444444444444429  0.4444444444444429  0.3117306553444550
  0.8888888888888857  0.8888888888888857  0.3809624266142802
  0.8888888888888857  0.2222222222222214  0.3809624266142802
  0.8888888888888857  0.5555555555555571  0.3809624266142802
  0.2222222222222214  0.8888888888888857  0.3809624266142802
  0.2222222222222214  0.2222222222222214  0.3809624266142802
  0.2222222222222214  0.5555555555555571  0.3809624266142802
  0.5555555555555571  0.8888888888888857  0.3809624266142802
  0.5555555555555571  0.2222222222222214  0.3809624266142802
  0.5555555555555571  0.5555555555555571  0.3809624266142802
 -0.0000000000000000 -0.0000000000000000  0.4502759344564093
 -0.0000000000000000  0.3333333333333357  0.4502759344564093
  0.0000000000000000  0.6666666666666643  0.4502759344564093
  0.3333333333333357  0.0000000000000000  0.4502759344564093
  0.3333333333333357  0.3333333333333357  0.4502759344564093
  0.3333333333333357  0.6666666666666643  0.4502759344564093
  0.6666666666666643 -0.0000000000000000  0.4502759344564093
  0.6666666666666643  0.3333333333333357  0.4502759344564093
  0.6666666666666643  0.6666666666666643  0.4502759344564093
  0.1111111111111143  0.1111111111111143  0.5191162428270629
  0.1111111111111143  0.4444444444444429  0.5191162428270629
  0.1111111111111143  0.7777777777777786  0.5191162428270629
  0.4444444444444429  0.1111111111111143  0.5191162428270629
  0.4444444444444429  0.4444444444444429  0.5191162428270629
  0.4444444444444429  0.7777777777777786  0.5191162428270629
  0.7777777777777786  0.1111111111111143  0.5191162428270629
  0.7777777777777786  0.4444444444444429  0.5191162428270629
  0.7777777777777786  0.7777777777777786  0.5191162428270629
  0.2777777777777786  0.2777777777777786  0.1043450678618401
  0.2777777777777786  0.6111111111111143  0.1043450678618401
  0.2777777777777786  0.9444444444444429  0.1043450678618401
  0.6111111111111143  0.2777777777777786  0.1043450678618401
  0.6111111111111143  0.6111111111111143  0.1043450678618401
  0.6111111111111143  0.9444444444444429  0.1043450678618401
  0.9444444444444429  0.2777777777777786  0.1043450678618401
  0.9444444444444429  0.6111111111111143  0.1043450678618401
  0.9444444444444429  0.9444444444444429  0.1043450678618401
  0.3888888888888857  0.3888888888888857  0.1731853762324935
  0.3888888888888857  0.7222222222222214  0.1731853762324935
  0.3888888888888857  0.0555555555555571  0.1731853762324935
  0.7222222222222214  0.3888888888888857  0.1731853762324935
  0.7222222222222214  0.7222222222222214  0.1731853762324935
  0.7222222222222214  0.0555555555555571  0.1731853762324935
  0.0555555555555571  0.3888888888888857  0.1731853762324935
  0.0555555555555571  0.7222222222222214  0.1731853762324935
  0.0555555555555571  0.0555555555555571  0.1731853762324935
  0.5000000000000000  0.5000000000000000  0.2424988840746228
  0.5000000000000000  0.8333333333333357  0.2424988840746228
  0.5000000000000000  0.1666666666666643  0.2424988840746228
  0.8333333333333357  0.5000000000000000  0.2424988840746228
  0.8333333333333357  0.8333333333333357  0.2424988840746228
  0.8333333333333357  0.1666666666666643  0.2424988840746228
  0.1666666666666643  0.5000000000000000  0.2424988840746228
  0.1666666666666643  0.8333333333333357  0.2424988840746228
  0.1666666666666643  0.1666666666666643  0.2424988840746228
  0.6111111111111143  0.6111111111111143  0.3117306553444550
  0.6111111111111143  0.9444444444444429  0.3117306553444550
  0.6111111111111143  0.2777777777777786  0.3117306553444550
  0.9444444444444429  0.6111111111111143  0.3117306553444550
  0.9444444444444429  0.9444444444444429  0.3117306553444550
  0.9444444444444429  0.2777777777777786  0.3117306553444550
  0.2777777777777786  0.6111111111111143  0.3117306553444550
  0.2777777777777786  0.9444444444444429  0.3117306553444550
  0.2777777777777786  0.2777777777777786  0.3117306553444550
  0.7222222222222214  0.7222222222222214  0.3809624266142802
  0.7222222222222214  0.0555555555555571  0.3809624266142802
  0.7222222222222214  0.3888888888888857  0.3809624266142802
  0.0555555555555571  0.7222222222222214  0.3809624266142802
  0.0555555555555571  0.0555555555555571  0.3809624266142802
  0.0555555555555571  0.3888888888888857  0.3809624266142802
  0.3888888888888857  0.7222222222222214  0.3809624266142802
  0.3888888888888857  0.0555555555555571  0.3809624266142802
  0.3888888888888857  0.3888888888888857  0.3809624266142802
  0.8333333333333357  0.8333333333333357  0.4502759344564093
  0.8333333333333357  0.1666666666666643  0.4502759344564093
  0.8333333333333357  0.5000000000000000  0.4502759344564093
  0.1666666666666643  0.8333333333333357  0.4502759344564093
  0.1666666666666643  0.1666666666666643  0.4502759344564093
  0.1666666666666643  0.5000000000000000  0.4502759344564093
  0.5000000000000000  0.8333333333333357  0.4502759344564093
  0.5000000000000000  0.1666666666666643  0.4502759344564093
  0.5000000000000000  0.5000000000000000  0.4502759344564093
  0.9444444444444429  0.9444444444444429  0.5191162428270629
  0.9444444444444429  0.2777777777777786  0.5191162428270629
  0.9444444444444429  0.6111111111111143  0.5191162428270629
  0.2777777777777786  0.9444444444444429  0.5191162428270629
  0.2777777777777786  0.2777777777777786  0.5191162428270629
  0.2777777777777786  0.6111111111111143  0.5191162428270629
  0.6111111111111143  0.9444444444444429  0.5191162428270629
  0.6111111111111143  0.2777777777777786  0.5191162428270629
  0.6111111111111143  0.6111111111111143  0.5191162428270629
  0.2777777777777786  0.4444444444444429  0.1043450678618401
  0.2777777777777786  0.7777777777777786  0.1043450678618401
  0.2777777777777786  0.1111111111111143  0.1043450678618401
  0.6111111111111143  0.4444444444444429  0.1043450678618401
  0.6111111111111143  0.7777777777777786  0.1043450678618401
  0.6111111111111143  0.1111111111111143  0.1043450678618401
  0.9444444444444429  0.4444444444444429  0.1043450678618401
  0.9444444444444429  0.7777777777777786  0.1043450678618401
  0.9444444444444429  0.1111111111111143  0.1043450678618401
  0.3888888888888857  0.5555555555555571  0.1731853762324935
  0.3888888888888857  0.8888888888888857  0.1731853762324936
  0.3888888888888857  0.2222222222222214  0.1731853762324935
  0.7222222222222214  0.5555555555555571  0.1731853762324936
  0.7222222222222214  0.8888888888888857  0.1731853762324935
  0.7222222222222214  0.2222222222222214  0.1731853762324935
  0.0555555555555571  0.5555555555555571  0.1731853762324935
  0.0555555555555571  0.8888888888888857  0.1731853762324935
  0.0555555555555571  0.2222222222222214  0.1731853762324936
  0.5000000000000000  0.6666666666666643  0.2424988840746228
  0.5000000000000000  0.0000000000000000  0.2424988840746228
  0.5000000000000000  0.3333333333333357  0.2424988840746228
  0.8333333333333357  0.6666666666666643  0.2424988840746228
  0.8333333333333357  0.0000000000000000  0.2424988840746228
  0.8333333333333357  0.3333333333333357  0.2424988840746228
  0.1666666666666643  0.6666666666666643  0.2424988840746228
  0.1666666666666643  0.0000000000000000  0.2424988840746228
  0.1666666666666643  0.3333333333333357  0.2424988840746228
  0.6111111111111143  0.7777777777777786  0.3117306553444550
  0.6111111111111143  0.1111111111111143  0.3117306553444550
  0.6111111111111143  0.4444444444444429  0.3117306553444550
  0.9444444444444429  0.7777777777777786  0.3117306553444550
  0.9444444444444429  0.1111111111111143  0.3117306553444550
  0.9444444444444429  0.4444444444444429  0.3117306553444550
  0.2777777777777786  0.7777777777777786  0.3117306553444550
  0.2777777777777786  0.1111111111111143  0.3117306553444550
  0.2777777777777786  0.4444444444444429  0.3117306553444550
  0.7222222222222214  0.8888888888888857  0.3809624266142802
  0.7222222222222214  0.2222222222222214  0.3809624266142802
  0.7222222222222214  0.5555555555555571  0.3809624266142802
  0.0555555555555571  0.8888888888888857  0.3809624266142802
  0.0555555555555571  0.2222222222222214  0.3809624266142802
  0.0555555555555571  0.5555555555555571  0.3809624266142802
  0.3888888888888857  0.8888888888888857  0.3809624266142802
  0.3888888888888857  0.2222222222222214  0.3809624266142802
  0.3888888888888857  0.5555555555555571  0.3809624266142802
  0.8333333333333357  0.0000000000000000  0.4502759344564093
  0.8333333333333357  0.3333333333333357  0.4502759344564093
  0.8333333333333357  0.6666666666666643  0.4502759344564093
  0.1666666666666643 -0.0000000000000000  0.4502759344564093
  0.1666666666666643  0.3333333333333357  0.4502759344564093
  0.1666666666666643  0.6666666666666643  0.4502759344564093
  0.5000000000000000 -0.0000000000000000  0.4502759344564093
  0.5000000000000000  0.3333333333333357  0.4502759344564093
  0.5000000000000000  0.6666666666666643  0.4502759344564093
  0.9444444444444429  0.1111111111111143  0.5191162428270629
  0.9444444444444429  0.4444444444444429  0.5191162428270629
  0.9444444444444429  0.7777777777777786  0.5191162428270629
  0.2777777777777786  0.1111111111111143  0.5191162428270629
  0.2777777777777786  0.4444444444444429  0.5191162428270629
  0.2777777777777786  0.7777777777777786  0.5191162428270629
  0.6111111111111143  0.1111111111111143  0.5191162428270629
  0.6111111111111143  0.4444444444444429  0.5191162428270629
  0.6111111111111143  0.7777777777777786  0.5191162428270629
  0.4444444444444429  0.2777777777777786  0.1043450678618401
  0.4444444444444429  0.6111111111111143  0.1043450678618401
  0.4444444444444429  0.9444444444444429  0.1043450678618401
  0.7777777777777786  0.2777777777777786  0.1043450678618401
  0.7777777777777786  0.6111111111111143  0.1043450678618401
  0.7777777777777786  0.9444444444444429  0.1043450678618401
  0.1111111111111143  0.2777777777777786  0.1043450678618401
  0.1111111111111143  0.6111111111111143  0.1043450678618401
  0.1111111111111143  0.9444444444444429  0.1043450678618401
  0.5555555555555571  0.3888888888888857  0.1731853762324935
  0.5555555555555571  0.7222222222222214  0.1731853762324935
  0.5555555555555571  0.0555555555555571  0.1731853762324935
  0.8888888888888857  0.3888888888888857  0.1731853762324936
  0.8888888888888857  0.7222222222222214  0.1731853762324935
  0.8888888888888857  0.0555555555555571  0.1731853762324935
  0.2222222222222214  0.3888888888888857  0.1731853762324935
  0.2222222222222214  0.7222222222222214  0.1731853762324935
  0.2222222222222214  0.0555555555555571  0.1731853762324935
  0.6666666666666643  0.5000000000000000  0.2424988840746228
  0.6666666666666643  0.8333333333333357  0.2424988840746228
  0.6666666666666643  0.1666666666666643  0.2424988840746228
  0.0000000000000000  0.5000000000000000  0.2424988840746228
  0.0000000000000000  0.8333333333333357  0.2424988840746228
  0.0000000000000000  0.1666666666666643  0.2424988840746228
  0.3333333333333357  0.5000000000000000  0.2424988840746228
  0.3333333333333357  0.8333333333333357  0.2424988840746228
  0.3333333333333357  0.1666666666666643  0.2424988840746228
  0.7777777777777786  0.6111111111111143  0.3117306553444550
  0.7777777777777786  0.9444444444444429  0.3117306553444550
  0.7777777777777786  0.2777777777777786  0.3117306553444550
  0.1111111111111143  0.6111111111111143  0.3117306553444550
  0.1111111111111143  0.9444444444444429  0.3117306553444550
  0.1111111111111143  0.2777777777777786  0.3117306553444550
  0.4444444444444429  0.6111111111111143  0.3117306553444550
  0.4444444444444429  0.9444444444444429  0.3117306553444550
  0.4444444444444429  0.2777777777777786  0.3117306553444550
  0.8888888888888857  0.7222222222222214  0.3809624266142802
  0.8888888888888857  0.0555555555555571  0.3809624266142802
  0.8888888888888857  0.3888888888888857  0.3809624266142802
  0.2222222222222214  0.7222222222222214  0.3809624266142802
  0.2222222222222214  0.0555555555555571  0.3809624266142802
  0.2222222222222214  0.3888888888888857  0.3809624266142802
  0.5555555555555571  0.7222222222222214  0.3809624266142802
  0.5555555555555571  0.0555555555555571  0.3809624266142802
  0.5555555555555571  0.3888888888888857  0.3809624266142802
  0.0000000000000000  0.8333333333333357  0.4502759344564093
  0.0000000000000000  0.1666666666666643  0.4502759344564093
  0.0000000000000000  0.5000000000000000  0.4502759344564093
  0.3333333333333357  0.8333333333333357  0.4502759344564093
  0.3333333333333357  0.1666666666666643  0.4502759344564093
  0.3333333333333357  0.5000000000000000  0.4502759344564093
  0.6666666666666643  0.8333333333333357  0.4502759344564093
  0.6666666666666643  0.1666666666666643  0.4502759344564093
  0.6666666666666643  0.5000000000000000  0.4502759344564093
  0.1111111111111143  0.9444444444444429  0.5191162428270629
  0.1111111111111143  0.2777777777777786  0.5191162428270629
  0.1111111111111143  0.6111111111111143  0.5191162428270629
  0.4444444444444429  0.9444444444444429  0.5191162428270629
  0.4444444444444429  0.2777777777777786  0.5191162428270629
  0.4444444444444429  0.6111111111111143  0.5191162428270629
  0.7777777777777786  0.9444444444444429  0.5191162428270629
  0.7777777777777786  0.2777777777777786  0.5191162428270629
  0.7777777777777786  0.6111111111111143  0.5191162428270629
  0.3888888888888857  0.5555555555555571  0.57
