Al  O                                   
    1.000000000000000     
    14.4150840000000002    0.0000000000000000    0.0000000000000000
    -7.2075420000000001   12.4838279999999990    0.0000000000000000
     0.0000000000000000    0.0000000000000000   13.1162539999999996
   Al   O 
   108   162
Direct
 -0.0000000000000000 -0.0000000000000000  0.1478472953391738
  0.1111110000000011  0.2222223333333346  0.0188197046608230
  0.1111110000000011  0.2222223333333346  0.3145142953391777
  0.2222223333333346  0.1111110000000011  0.1854857046608223
  0.2222223333333346  0.1111110000000011  0.4811802953391770
 -0.0000000000000000 -0.0000000000000000  0.3521527046608262
 -0.0000000000000000 -0.0000000000000000  0.6478472953391738
  0.1111110000000011  0.2222223333333346  0.5188197046608229
  0.1111110000000011  0.2222223333333346  0.8145142953391777
  0.2222223333333346  0.1111110000000011  0.6854857046608223
  0.2222223333333346  0.1111110000000011  0.9811802953391771
 -0.0000000000000000 -0.0000000000000000  0.8521527046608262
 -0.0000000000000000  0.3333333333333357  0.1478472953391738
  0.1111110000000011  0.5555556666666632  0.0188197046608230
  0.1111110000000011  0.5555556666666632  0.3145142953391777
  0.2222223333333346  0.4444443333333368  0.1854857046608223
  0.2222223333333346  0.4444443333333368  0.4811802953391770
 -0.0000000000000000  0.3333333333333357  0.3521527046608262
 -0.0000000000000000  0.3333333333333357  0.6478472953391738
  0.1111110000000011  0.5555556666666632  0.5188197046608229
  0.1111110000000011  0.5555556666666632  0.8145142953391777
  0.2222223333333346  0.4444443333333368  0.6854857046608223
  0.2222223333333346  0.4444443333333368  0.9811802953391771
 -0.0000000000000000  0.3333333333333357  0.8521527046608262
 -0.0000000000000000  0.6666666666666643  0.1478472953391738
  0.1111110000000011  0.8888889999999989  0.0188197046608230
  0.1111110000000011  0.8888889999999989  0.3145142953391777
  0.2222223333333346  0.7777776666666654  0.1854857046608223
  0.2222223333333346  0.7777776666666654  0.4811802953391770
 -0.0000000000000000  0.6666666666666643  0.3521527046608262
 -0.0000000000000000  0.6666666666666643  0.6478472953391738
  0.1111110000000011  0.8888889999999989  0.5188197046608229
  0.1111110000000011  0.8888889999999989  0.8145142953391777
  0.2222223333333346  0.7777776666666654  0.6854857046608223
  0.2222223333333346  0.7777776666666654  0.9811802953391771
 -0.0000000000000000  0.6666666666666643  0.8521527046608262
  0.3333333333333357 -0.0000000000000000  0.1478472953391738
  0.4444443333333368  0.2222223333333346  0.0188197046608230
  0.4444443333333368  0.2222223333333346  0.3145142953391777
  0.5555556666666632  0.1111110000000011  0.1854857046608223
  0.5555556666666632  0.1111110000000011  0.4811802953391770
  0.3333333333333357 -0.0000000000000000  0.3521527046608262
  0.3333333333333357 -0.0000000000000000  0.6478472953391738
  0.4444443333333368  0.2222223333333346  0.5188197046608229
  0.4444443333333368  0.2222223333333346  0.8145142953391777
  0.5555556666666632  0.1111110000000011  0.6854857046608223
  0.5555556666666632  0.1111110000000011  0.9811802953391771
  0.3333333333333357 -0.0000000000000000  0.8521527046608262
  0.3333333333333357  0.3333333333333357  0.1478472953391738
  0.4444443333333368  0.5555556666666632  0.0188197046608230
  0.4444443333333368  0.5555556666666632  0.3145142953391777
  0.5555556666666632  0.4444443333333368  0.1854857046608223
  0.5555556666666632  0.4444443333333368  0.4811802953391770
  0.3333333333333357  0.3333333333333357  0.3521527046608262
  0.3333333333333357  0.3333333333333357  0.6478472953391738
  0.4444443333333368  0.5555556666666632  0.5188197046608229
  0.4444443333333368  0.5555556666666632  0.8145142953391777
  0.5555556666666632  0.4444443333333368  0.6854857046608223
  0.5555556666666632  0.4444443333333368  0.9811802953391771
  0.3333333333333357  0.3333333333333357  0.8521527046608262
  0.3333333333333357  0.6666666666666643  0.1478472953391738
  0.4444443333333368  0.8888889999999989  0.0188197046608230
  0.4444443333333368  0.8888889999999989  0.3145142953391777
  0.5555556666666632  0.7777776666666654  0.1854857046608223
  0.5555556666666632  0.7777776666666654  0.4811802953391770
  0.3333333333333357  0.6666666666666643  0.3521527046608262
  0.3333333333333357  0.6666666666666643  0.6478472953391738
  0.4444443333333368  0.8888889999999989  0.5188197046608229
  0.4444443333333368  0.8888889999999989  0.8145142953391777
  0.5555556666666632  0.7777776666666654  0.6854857046608223
  0.5555556666666632  0.7777776666666654  0.9811802953391771
  0.3333333333333357  0.6666666666666643  0.8521527046608262
  0.6666666666666643 -0.0000000000000000  0.1478472953391738
  0.7777776666666654  0.2222223333333346  0.0188197046608230
  0.7777776666666654  0.2222223333333346  0.3145142953391777
  0.8888889999999989  0.1111110000000011  0.1854857046608223
  0.8888889999999989  0.1111110000000011  0.4811802953391770
  0.6666666666666643 -0.0000000000000000  0.3521527046608262
  0.6666666666666643 -0.0000000000000000  0.6478472953391738
  0.7777776666666654  0.2222223333333346  0.5188197046608229
  0.7777776666666654  0.2222223333333346  0.8145142953391777
  0.8888889999999989  0.1111110000000011  0.6854857046608223
  0.8888889999999989  0.1111110000000011  0.9811802953391771
  0.6666666666666643 -0.0000000000000000  0.8521527046608262
  0.6666666666666643  0.3333333333333357  0.1478472953391738
  0.7777776666666654  0.5555556666666632  0.0188197046608230
  0.7777776666666654  0.5555556666666632  0.3145142953391777
  0.8888889999999989  0.4444443333333368  0.1854857046608223
  0.8888889999999989  0.4444443333333368  0.4811802953391770
  0.6666666666666643  0.3333333333333357  0.3521527046608262
  0.6666666666666643  0.3333333333333357  0.6478472953391738
  0.7777776666666654  0.5555556666666632  0.5188197046608229
  0.7777776666666654  0.5555556666666632  0.8145142953391777
  0.8888889999999989  0.4444443333333368  0.6854857046608223
  0.8888889999999989  0.4444443333333368  0.9811802953391771
  0.6666666666666643  0.3333333333333357  0.8521527046608262
  0.6666666666666643  0.6666666666666643  0.1478472953391738
  0.7777776666666654  0.8888889999999989  0.0188197046608230
  0.7777776666666654  0.8888889999999989  0.3145142953391777
  0.8888889999999989  0.7777776666666654  0.1854857046608223
  0.8888889999999989  0.7777776666666654  0.4811802953391770
  0.6666666666666643  0.6666666666666643  0.3521527046608262
  0.6666666666666643  0.6666666666666643  0.6478472953391738
  0.7777776666666654  0.8888889999999989  0.5188197046608229
  0.7777776666666654  0.8888889999999989  0.8145142953391777
  0.8888889999999989  0.7777776666666654  0.6854857046608223
  0.8888889999999989  0.7777776666666654  0.9811802953391771
  0.6666666666666643  0.6666666666666643  0.8521527046608262
  0.1020313321894579 -0.0000000000000000  0.2500000000000000
  0.2222223333333346  0.0090796678105432  0.0833330000000032
 -0.0000000000000000  0.1020313321894579  0.2500000000000000
  0.2313020011438778  0.2313020011438778  0.2500000000000000
  0.3242536655227925  0.2131423321894589  0.0833330000000032
  0.1201910011438767  0.1111110000000011  0.0833330000000032
  0.3242536655227925  0.1111110000000011  0.5833330000000032
  0.1111110000000011  0.1201910011438767  0.4166669999999968
  0.2222223333333346  0.2131423321894589  0.5833330000000032
  0.1201910011438767  0.0090796678105432  0.5833330000000032
  0.2131423321894589  0.3242536655227925  0.4166669999999968
  0.0090796678105432  0.2222223333333346  0.4166669999999968
  0.2131423321894589  0.2222223333333346  0.9166669999999968
  0.0000000000000000  0.2313020011438778  0.7500000000000000
  0.1111110000000011  0.3242536655227925  0.9166669999999968
  0.0090796678105432  0.1201910011438767  0.9166669999999968
  0.1020313321894579  0.1020313321894579  0.7500000000000000
  0.2313020011438778 -0.0000000000000000  0.7500000000000000
  0.1020313321894579  0.3333333333333357  0.2500000000000000
  0.2222223333333346  0.3424130011438789  0.0833330000000032
 -0.0000000000000000  0.4353646655227865  0.2500000000000000
  0.2313020011438778  0.5646353344772135  0.2500000000000000
  0.3242536655227925  0.5464756655227876  0.0833330000000032
  0.1201910011438767  0.4444443333333368  0.0833330000000032
  0.3242536655227925  0.4444443333333368  0.5833330000000032
  0.1111110000000011  0.4535243344772125  0.4166669999999968
  0.2222223333333346  0.5464756655227876  0.5833330000000032
  0.1201910011438767  0.3424130011438789  0.5833330000000032
  0.2131423321894589  0.6575869988561212  0.4166669999999968
  0.0090796678105432  0.5555556666666632  0.4166669999999968
  0.2131423321894589  0.5555556666666632  0.9166669999999968
  0.0000000000000000  0.5646353344772135  0.7500000000000000
  0.1111110000000011  0.6575869988561212  0.9166669999999968
  0.0090796678105432  0.4535243344772125  0.9166669999999968
  0.1020313321894579  0.4353646655227865  0.7500000000000000
  0.2313020011438778  0.3333333333333357  0.7500000000000000
  0.1020313321894579  0.6666666666666643  0.2500000000000000
  0.2222223333333346  0.6757463344772074  0.0833330000000032
 -0.0000000000000000  0.7686979988561222  0.2500000000000000
  0.2313020011438778  0.8979686678105421  0.2500000000000000
  0.3242536655227925  0.8798089988561233  0.0833330000000032
  0.1201910011438767  0.7777776666666654  0.0833330000000032
  0.3242536655227925  0.7777776666666654  0.5833330000000032
  0.1111110000000011  0.7868576678105410  0.4166669999999968
  0.2222223333333346  0.8798089988561233  0.5833330000000032
  0.1201910011438767  0.6757463344772074  0.5833330000000032
  0.2131423321894589  0.9909203321894569  0.4166669999999968
  0.0090796678105432  0.8888889999999989  0.4166669999999968
  0.2131423321894589  0.8888889999999989  0.9166669999999968
  0.0000000000000000  0.8979686678105421  0.7500000000000000
  0.1111110000000011  0.9909203321894569  0.9166669999999968
  0.0090796678105432  0.7868576678105410  0.9166669999999968
  0.1020313321894579  0.7686979988561222  0.7500000000000000
  0.2313020011438778  0.6666666666666643  0.7500000000000000
  0.4353646655227865 -0.0000000000000000  0.2500000000000000
  0.5555556666666632  0.0090796678105432  0.0833330000000032
  0.3333333333333357  0.1020313321894579  0.2500000000000000
  0.5646353344772135  0.2313020011438778  0.2500000000000000
  0.6575869988561212  0.2131423321894589  0.0833330000000032
  0.4535243344772125  0.1111110000000011  0.0833330000000032
  0.6575869988561212  0.1111110000000011  0.5833330000000032
  0.4444443333333368  0.1201910011438767  0.4166669999999968
  0.5555556666666632  0.2131423321894589  0.5833330000000032
  0.4535243344772125  0.0090796678105432  0.5833330000000032
  0.5464756655227876  0.3242536655227925  0.4166669999999968
  0.3424130011438789  0.2222223333333346  0.4166669999999968
  0.5464756655227876  0.2222223333333346  0.9166669999999968
  0.3333333333333357  0.2313020011438778  0.7500000000000000
  0.4444443333333368  0.3242536655227925  0.9166669999999968
  0.3424130011438789  0.1201910011438767  0.9166669999999968
  0.4353646655227865  0.1020313321894579  0.7500000000000000
  0.5646353344772135 -0.0000000000000000  0.7500000000000000
  0.4353646655227865  0.3333333333333357  0.2500000000000000
  0.5555556666666632  0.3424130011438789  0.0833330000000032
  0.3333333333333357  0.4353646655227865  0.2500000000000000
  0.5646353344772135  0.5646353344772135  0.2500000000000000
  0.6575869988561212  0.5464756655227876  0.0833330000000032
  0.4535243344772125  0.4444443333333368  0.0833330000000032
  0.6575869988561212  0.4444443333333368  0.5833330000000032
  0.4444443333333368  0.4535243344772125  0.4166669999999968
  0.5555556666666632  0.5464756655227876  0.5833330000000032
  0.4535243344772125  0.3424130011438789  0.5833330000000032
  0.5464756655227876  0.6575869988561212  0.4166669999999968
  0.3424130011438789  0.5555556666666632  0.4166669999999968
  0.5464756655227876  0.5555556666666632  0.9166669999999968
  0.3333333333333357  0.5646353344772135  0.7500000000000000
  0.4444443333333368  0.6575869988561212  0.9166669999999968
  0.3424130011438789  0.4535243344772125  0.9166669999999968
  0.4353646655227865  0.4353646655227865  0.7500000000000000
  0.5646353344772135  0.3333333333333357  0.7500000000000000
  0.4353646655227865  0.6666666666666643  0.2500000000000000
  0.5555556666666632  0.6757463344772074  0.0833330000000032
  0.3333333333333357  0.7686979988561222  0.2500000000000000
  0.5646353344772135  0.8979686678105421  0.2500000000000000
  0.6575869988561212  0.8798089988561233  0.0833330000000032
  0.4535243344772125  0.7777776666666654  0.0833330000000032
  0.6575869988561212  0.7777776666666654  0.5833330000000032
  0.4444443333333368  0.7868576678105410  0.4166669999999968
  0.5555556666666632  0.8798089988561233  0.5833330000000032
  0.4535243344772125  0.6757463344772074  0.5833330000000032
  0.5464756655227876  0.9909203321894569  0.4166669999999968
  0.3424130011438789  0.8888889999999989  0.4166669999999968
  0.5464756655227876  0.8888889999999989  0.9166669999999968
  0.3333333333333357  0.8979686678105421  0.7500000000000000
  0.4444443333333368  0.9909203321894569  0.9166669999999968
  0.3424130011438789  0.7868576678105410  0.9166669999999968
  0.4353646655227865  0.7686979988561222  0.7500000000000000
  0.5646353344772135  0.6666666666666643  0.7500000000000000
  0.7686979988561222 -0.0000000000000000  0.2500000000000000
  0.8888889999999989  0.0090796678105432  0.0833330000000032
  0.6666666666666643  0.1020313321894579  0.2500000000000000
  0.8979686678105421  0.2313020011438778  0.2500000000000000
  0.9909203321894569  0.2131423321894589  0.0833330000000032
  0.7868576678105410  0.1111110000000011  0.0833330000000032
  0.9909203321894569  0.1111110000000011  0.5833330000000032
  0.7777776666666654  0.1201910011438767  0.4166669999999968
  0.8888889999999989  0.2131423321894589  0.5833330000000032
  0.7868576678105410  0.0090796678105432  0.5833330000000032
  0.8798089988561233  0.3242536655227925  0.4166669999999968
  0.6757463344772074  0.2222223333333346  0.4166669999999968
  0.8798089988561233  0.2222223333333346  0.9166669999999968
  0.6666666666666643  0.2313020011438778  0.7500000000000000
  0.7777776666666654  0.3242536655227925  0.9166669999999968
  0.6757463344772074  0.1201910011438767  0.9166669999999968
  0.7686979988561222  0.1020313321894579  0.7500000000000000
  0.8979686678105421 -0.0000000000000000  0.7500000000000000
  0.7686979988561222  0.3333333333333357  0.2500000000000000
  0.8888889999999989  0.3424130011438789  0.0833330000000032
  0.6666666666666643  0.4353646655227865  0.2500000000000000
  0.8979686678105421  0.5646353344772135  0.2500000000000000
  0.9909203321894569  0.5464756655227876  0.0833330000000032
  0.7868576678105410  0.4444443333333368  0.0833330000000032
  0.9909203321894569  0.4444443333333368  0.5833330000000032
  0.7777776666666654  0.4535243344772125  0.4166669999999968
  0.8888889999999989  0.5464756655227876  0.5833330000000032
  0.7868576678105410  0.3424130011438789  0.5833330000000032
  0.8798089988561233  0.6575869988561212  0.4166669999999968
  0.6757463344772074  0.5555556666666632  0.4166669999999968
  0.8798089988561233  0.5555556666666632  0.9166669999999968
  0.6666666666666643  0.5646353344772135  0.7500000000000000
  0.7777776666666654  0.6575869988561212  0.9166669999999968
  0.6757463344772074  0.4535243344772125  0.9166669999999968
  0.7686979988561222  0.4353646655227865  0.7500000000000000
  0.8979686678105421  0.3333333333333357  0.7500000000000000
  0.7686979988561222  0.6666666666666643  0.2500000000000000
  0.8888889999999989  0.6757463344772074  0.0833330000000032
  0.6666666666666643  0.7686979988561222  0.2500000000000000
  0.8979686678105421  0.8979686678105421  0.2500000000000000
  0.9909203321894569  0.8798089988561233  0.0833330000000032
  0.7868576678105410  0.7777776666666654  0.0833330000000032
  0.9909203321894569  0.7777776666666654  0.5833330000000032
  0.7777776666666654  0.7868576678105410  0.4166669999999968
  0.8888889999999989  0.8798089988561233  0.5833330000000032
  0.7868576678105410  0.6757463344772074  0.5833330000000032
  0.8798089988561233  0.9909203321894569  0.4166669999999968
  0.6757463344772074  0.8888889999999989  0.4166669999999968
  0.8798089988561233  0.8888889999999989  0.9166669999999968
  0.6666666666666643  0.8979686678105421  0.7500000000000000
  0.7777776666666654  0.9909203321894569  0.9166669999999968
  0.6757463344772074  0.7868576678105410  0.9166669999999968
  0.7686979988561222  0.7686979988561222  0.7500000000000000
  0.8979686678105421  0.6666666666666643  0.7500000000000000
 
  0.00000000E+00  0.00000000E+00  0.00000000E+00
  0.00000000E+00  0.00000000E+00  0.00000000E+00
  0.00000000E+00  0.00000000E+00  0.00000000E+00
  0.00000000E+00  0.00000000E+00  0.00000000E+00
  0.00000000E+00  0.00000000E+00  0.00000000E+00
  0.00000000E+00  0.00000000E+00  0.00000000E+00
  0.00000000E+00  0.00000000E+00  0.00000000E+00
  0.00000000E+00  0.00000000E+00  0.00000000E+00
  0.00000000E+00  0.00000000E+00  0.00000000E+00
  0.00000000E+00  0.00000000E+00  0.00000000E+00
  0.00000000E+00  0.00000000E+00  0.00000000E+00
  0.00000000E+00  0.00000000E+00  0.00000000E+00
  0.00000000E+00  0.00000000E+00  0.00000000E+00
  0.00000000E+00  0.00000000E+00  0.00000000E+00
  0.00000000E+00  0.00000000E+00  0.00000000E+00
  0.00000000E+00  0.00000000E+00  0.00000000E+00
  0.00000000E+00  0.00000000E+00  0.00000000E+00
  0.00000000E+00  0.00000000E+00  0.00000000E+00
  0.00000000E+00  0.00000000E+00  0.00000000E+00
  0.00000000E+00  0.00000000E+00  0.00000000E+00
  0.00000000E+00  0.00000000E+00  0.00000000E+00
  0.00000000E+00  0.00000000E+00  0.00000000E+00
  0.00000000E+00  0.00000000E+00  0.00000000E+00
  0.00000000E+00  0.00000000E+00  0.00000000E+00
  0.00000000E+00  0.00000000E+00  0.00000000E+00
  0.00000000E+00  0.00000000E+00  0.00000000E+00
  0.00000000E+00  0.00000000E+00  0.00000000E+00
  0.00000000E+00  0.00000000E+00  0.00000000E+00
  0.00000000E+00  0.00000000E+00  0.00000000E+00
  0.00000000E+00  0.00000000E+00  0.00000000E+00
  0.00000000E+00  0.00000000E+00  0.00000000E+00
  0.00000000E+00  0.00000000E+00  0.00000000E+00
  0.00000000E+00  0.00000000E+00  0.00000000E+00
  0.00000000E+00  0.00000000E+00  0.00000000E+00
  0.00000000E+00  0.00000000E+00  0.00000000E+00
  0.00000000E+00  0.00000000E+00  0.00000000E+00
  0.00000000E+00  0.00000000E+00  0.00000000E+00
  0.00000000E+00  0.00000000E+00  0.00000000E+00
  0.00000000E+00  0.00000000E+00  0.00000000E+00
  0.00000000E+00  0.00000000E+00  0.00000000E+00
  0.00000000E+00  0.00000000E+00  0.00000000E+00
  0.00000000E+00  0.00000000E+00  0.00000000E+00
  0.00000000E+00  0.00000000E+00  0.00000000E+00
  0.00000000E+00  0.00000000E+00  0.00000000E+00
  0.00000000E+00  0.00000000E+00  0.00000000E+00
  0.00000000E+00  0.00000000E+00  0.00000000E+00
  0.00000000E+00  0.00000000E+00  0.00000000E+00
  0.00000000E+00  0.00000000E+00  0.00000000E+00
  0.00000000E+00  0.00000000E+00  0.00000000E+00
  0.00000000E+00  0.00000000E+00  0.00000000E+00
  0.00000000E+00  0.00000000E+00  0.00000000E+00
  0.00000000E+00  0.00000000E+00  0.00000000E+00
  0.00000000E+00  0.00000000E+00  0.00000000E+00
  0.00000000E+00  0.00000000E+00  0.00000000E+00
  0.00000000E+00  0.00000000E+00  0.00000000E+00
  0.00000000E+00  0.00000000E+00  0.00000000E+00
  0.00000000E+00  0.00000000E+00  0.00000000E+00
  0.00000000E+00  0.00000000E+00  0.00000000E+00
  0.00000000E+00  0.00000000E+00  0.00000000E+00
  0.00000000E+00  0.00000000E+00  0.00000000E+00
  0.00000000E+00  0.00000000E+00  0.00000000E+00
  0.00000000E+00  0.00000000E+00  0.00000000E+00
  0.00000000E+00  0.00000000E+00  0.00000000E+00
  0.00000000E+00  0.00000000E+00  0.00000000E+00
  0.00000000E+00  0.00000000E+00  0.00000000E+00
  0.00000000E+00  0.00000000E+00  0.00000000E+00
  0.00000000E+00  0.00000000E+00  0.00000000E+00
  0.00000000E+00  0.00000000E+00  0.00000000E+00
  0.00000000E+00  0.00000000E+00  0.00000000E+00
  0.00000000E+00  0.00000000E+00  0.00000000E+00
  0.00000000E+00  0.00000000E+00  0.00000000E+00
  0.00000000E+00  0.00000000E+00  0.00000000E+00
  0.00000000E+00  0.00000000E+00  0.00000000E+00
  0.00000000E+00  0.00000000E+00  0.00000000E+00
  0.00000000E+00  0.00000000E+00  0.00000000E+00
  0.00000000E+00  0.00000000E+00  0.00000000E+00
  0.00000000E+00  0.00000000E+00  0.00000000E+00
  0.00000000E+00  0.00000000E+00  0.00000000E+00
  0.00000000E+00  0.00000000E+00  0.00000000E+00
  0.00000000E+00  0.00000000E+00  0.00000000E+00
  0.00000000E+00  0.00000000E+00  0.00000000E+00
  0.00000000E+00  0.00000000E+00  0.00000000E+00
  0.00000000E+00  0.00000000E+00  0.00000000E+00
  0.00000000E+00  0.00000000E+00  0.00000000E+00
  0.00000000E+00  0.00000000E+00  0.00000000E+00
  0.00000000E+00  0.00000000E+00  0.00000000E+00
  0.00000000E+00  0.00000000E+00  0.00000000E+00
  0.00000000E+00  0.00000000E+00  0.00000000E+00
  0.00000000E+00  0.00000000E+00  0.00000000E+00
  0.00000000E+00  0.00000000E+00  0.00000000E+00
  0.00000000E+00  0.00000000E+00  0.00000000E+00
  0.00000000E+00  0.00000000E+00  0.00000000E+00
  0.00000000E+00  0.00000000E+00  0.00000000E+00
  0.00000000E+00  0.00000000E+00  0.00000000E+00
  0.00000000E+00  0.00000000E+00  0.00000000E+00
  0.00000000E+00  0.00000000E+00  0.00000000E+00
  0.00000000E+00  0.00000000E+00  0.00000000E+00
  0.00000000E+00  0.00000000E+00  0.00000000E+00
  0.00000000E+00  0.00000000E+00  0.00000000E+00
  0.00000000E+00  0.00000000E+00  0.00000000E+00
  0.00000000E+00  0.00000000E+00  0.00000000E+00
  0.00000000E+00  0.00000000E+00  0.00000000E+00
  0.00000000E+00  0.00000000E+00  0.00000000E+00
  0.00000000E+00  0.00000000E+00  0.00000000E+00
  0.00000000E+00  0.00000000E+00  0.00000000E+00
  0.00000000E+00  0.00000000E+00  0.00000000E+00
  0.00000000E+00  0.00000000E+00  0.00000000E+00
  0.00000000E+00  0.00000000E+00  0.00000000E+00
  0.00000000E+00  0.00000000E+00  0.00000000E+00
  0.00000000E+00  0.00000000E+00  0.00000000E+00
  0.00000000E+00  0.00000000E+00  0.00000000E+00
  0.00000000E+00  0.00000000E+00  0.00000000E+00
  0.00000000E+00  0.00000000E+00  0.00000000E+00
  0.00000000E+00  0.00000000E+00  0.00000000E+00
  0.00000000E+00  0.00000000E+00  0.00000000E+00
  0.00000000E+00  0.00000000E+00  0.00000000E+00
  0.00000000E+00  0.00000000E+00  0.00000000E+00
  0.00000000E+00  0.00000000E+00  0.00000000E+00
  0.00000000E+00  0.00000000E+00  0.00000000E+00
  0.00000000E+00  0.00000000E+00  0.00000000E+00
  0.00000000E+00  0.00000000E+00  0.00000000E+00
  0.00000000E+00  0.00000000E+00  0.00000000E+00
  0.00000000E+00  0.00000000E+00  0.00000000E+00
  0.00000000E+00  0.00000000E+00  0.00000000E+00
  0.00000000E+00  0.00000000E+00  0.00000000E+00
  0.00000000E+00  0.00000000E+00  0.00000000E+00
  0.00000000E+00  0.00000000E+00  0.00000000E+00
  0.00000000E+00  0.00000000E+00  0.00000000E+00
  0.00000000E+00  0.00000000E+00  0.00000000E+00
  0.00000000E+00  0.00000000E+00  0.00000000E+00
  0.00000000E+00  0.00000000E+00  0.00000000E+00
  0.00000000E+00  0.00000000E+00  0.00000000E+00
  0.00000000E+00  0.00000000E+00  0.00000000E+00
  0.00000000E+00  0.00000000E+00  0.00000000E+00
  0.00000000E+00  0.00000000E+00  0.00000000E+00
  0.00000000E+00  0.00000000E+00  0.00000000E+00
  0.00000000E+00  0.00000000E+00  0.00000000E+00
  0.00000000E+00  0.00000000E+00  0.00000000E+00
  0.00000000E+00  0.00000000E+00  0.00000000E+00
  0.00000000E+00  0.00000000E+00  0.00000000E+00
  0.00000000E+00  0.00000000E+00  0.00000000E+00
  0.00000000E+00  0.00000000E+00  0.00000000E+00
  0.00000000E+00  0.00000000E+00  0.00000000E+00
  0.00000000E+00  0.00000000E+00  0.00000000E+00
  0.00000000E+00  0.00000000E+00  0.00000000E+00
  0.00000000E+00  0.00000000E+00  0.00000000E+00
  0.00000000E+00  0.00000000E+00  0.00000000E+00
  0.00000000E+00  0.00000000E+00  0.00000000E+00
  0.00000000E+00  0.00000000E+00  0.00000000E+00
  0.00000000E+00  0.00000000E+00  0.00000000E+00
  0.00000000E+00  0.00000000E+00  0.00000000E+00
  0.00000000E+00  0.00000000E+00  0.00000000E+00
  0.00000000E+00  0.00000000E+00  0.00000000E+00
  0.00000000E+00  0.00000000E+00  0.00000000E+00
  0.00000000E+00  0.00000000E+00  0.00000000E+00
  0.00000000E+00  0.00000000E+00  0.00000000E+00
  0.00000000E+00  0.00000000E+00  0.00000000E+00
  0.00000000E+00  0.00000000E+00  0.00000000E+00
  0.00000000E+00  0.00000000E+00  0.00000000E+00
  0.00000000E+00  0.00000000E+00  0.00000000E+00
  0.00000000E+00  0.00000000E+00  0.00000000E+00
  0.00000000E+00  0.00000000E+00  0.00000000E+00
  0.00000000E+00  0.00000000E+00  0.00000000E+00
  0.00000000E+00  0.00000000E+00  0.00000000E+00
  0.00000000E+00  0.00000000E+00  0.00000000E+00
  0.00000000E+00  0.00000000E+00  0.00000000E+00
  0.00000000E+00  0.00000000E+00  0.00000000E+00
  0.00000000E+00  0.00000000E+00  0.00000000E+00
  0.00000000E+00  0.00000000E+00  0.00000000E+00
  0.00000000E+00  0.00000000E+00  0.00000000E+00
  0.00000000E+00  0.00000000E+00  0.00000000E+00
  0.00000000E+00  0.00000000E+00  0.00000000E+00
  0.00000000E+00  0.00000000E+00  0.00000000E+00
  0.00000000E+00  0.00000000E+00  0.00000000E+00
  0.00000000E+00  0.00000000E+00  0.00000000E+00
  0.00000000E+00  0.00000000E+00  0.00000000E+00
  0.00000000E+00  0.00000000E+00  0.00000000E+00
  0.00000000E+00  0.00000000E+00  0.00000000E+00
  0.00000000E+00  0.00000000E+00  0.00000000E+00
  0.00000000E+00  0.00000000E+00  0.00000000E+00
  0.00000000E+00  0.00000000E+00  0.00000000E+00
  0.00000000E+00  0.00000000E+00  0.00000000E+00
  0.00000000E+00  0.00000000E+00  0.00000000E+00
  0.00000000E+00  0.00000000E+00  0.00000000E+00
  0.00000000E+00  0.00000000E+00  0.00000000E+00
  0.00000000E+00  0.00000000E+00  0.00000000E+00
  0.00000000E+00  0.00000000E+00  0.00000000E+00
  0.00000000E+00  0.00000000E+00  0.00000000E+00
  0.00000000E+00  0.00000000E+00  0.00000000E+00
  0.00000000E+00  0.00000000E+00  0.00000000E+00
  0.00000000E+00  0.00000000E+00  0.00000000E+00
  0.00000000E+00  0.00000000E+00  0.00000000E+00
  0.00000000E+00  0.00000000E+00  0.00000000E+00
  0.00000000E+00  0.00000000E+00  0.00000000E+00
  0.00000000E+00  0.00000000E+00  0.00000000E+00
  0.00000000E+00  0.00000000E+00  0.00000000E+00
  0.00000000E+00  0.00000000E+00  0.00000000E+00
  0.00000000E+00  0.00000000E+00  0.00000000E+00
  0.00000000E+00  0.00000000E+00  0.00000000E+00
  0.00000000E+00  0.00000000E+00  0.00000000E+00
  0.00000000E+00  0.00000000E+00  0.00000000E+00
  0.00000000E+00  0.00000000E+00  0.00000000E+00
  0.00000000E+00  0.00000000E+00  0.00000000E+00
  0.00000000E+00  0.00000000E+00  0.00000000E+00
  0.00000000E+00  0.00000000E+00  0.00000000E+00
  0.00000000E+00  0.00000000E+00  0.00000000E+00
  0.00000000E+00  0.00000000E+00  0.00000000E+00
  0.00000000E+00  0.00000000E+00  0.00000000E+00
  0.00000000E+00  0.00000000E+00  0.00000000E+00
  0.00000000E+00  0.00000000E+00  0.00000000E+00
  0.00000000E+00  0.00000000E+00  0.00000000E+00
  0.00000000E+00  0.00000000E+00  0.00000000E+00
  0.00000000E+00  0.00000000E+00  0.00000000E+00
  0.00000000E+00  0.00000000E+00  0.00000000E+00
  0.00000000E+00  0.00000000E+00  0.00000000E+00
  0.00000000E+00  0.00000000E+00  0.00000000E+00
  0.00000000E+00  0.00000000E+00  0.00000000E+00
  0.00000000E+00  0.00000000E+00  0.00000000E+00
  0.00000000E+00  0.00000000E+00  0.00000000E+00
  0.00000000E+00  0.00000000E+00  0.00000000E+00
  0.00000000E+00  0.00000000E+00  0.00000000E+00
  0.00000000E+00  0.00000000E+00  0.00000000E+00
  0.00000000E+00  0.00000000E+00  0.00000000E+00
  0.00000000E+00  0.00000000E+00  0.00000000E+00
  0.00000000E+00  0.00000000E+00  0.00000000E+00
  0.00000000E+00  0.00000000E+00  0.00000000E+00
  0.00000000E+00  0.00000000E+00  0.00000000E+00
  0.00000000E+00  0.00000000E+00  0.00000000E+00
  0.00000000E+00  0.00000000E+00  0.00000000E+00
  0.00000000E+00  0.00000000E+00  0.00000000E+00
  0.00000000E+00  0.00000000E+00  0.00000000E+00
  0.00000000E+00  0.00000000E+00  0.00000000E+00
  0.00000000E+00  0.00000000E+00  0.00000000E+00
  0.00000000E+00  0.00000000E+00  0.00000000E+00
  0.00000000E+00  0.00000000E+00  0.00000000E+00
  0.00000000E+00  0.00000000E+00  0.00000000E+00
  0.00000000E+00  0.00000000E+00  0.00000000E+00
  0.00000000E+00  0.00000000E+00  0.00000000E+00
  0.00000000E+00  0.00000000E+00  0.00000000E+00
  0.00000000E+00  0.00000000E+00  0.00000000E+00
  0.00000000E+00  0.00000000E+00  0.00000000E+00
  0.00000000E+00  0.00000000E+00  0.00000000E+00
  0.00000000E+00  0.00000000E+00  0.00000000E+00
  0.00000000E+00  0.00000000E+00  0.00000000E+00
  0.00000000E+00  0.00000000E+00  0.00000000E+00
  0.00000000E+00  0.00000000E+00  0.00000000E+00
  0.00000000E+00  0.00000000E+00  0.00000000E+00
  0.00000000E+00  0.00000000E+00  0.00000000E+00
  0.00000000E+00  0.00000000E+00  0.00000000E+00
  0.00000000E+00  0.00000000E+00  0.00000000E+00
  0.00000000E+00  0.00000000E+00  0.00000000E+00
  0.00000000E+00  0.00000000E+00  0.00000000E+00
  0.00000000E+00  0.00000000E+00  0.00000000E+00
  0.00000000E+00  0.00000000E+00  0.00000000E+00
  0.00000000E+00  0.00000000E+00  0.00000000E+00
  0.00000000E+00  0.00000000E+00  0.00000000E+00
  0.00000000E+00  0.00000000E+00  0.00000000E+00
  0.00000000E+00  0.00000000E+00  0.00000000E+00
  0.00000000E+00  0.00000000E+00  0.00000000E+00
  0.00000000E+00  0.00000000E+00  0.00000000E+00
  0.00000000E+00  0.00000000E+00  0.00000000E+00
  0.00000000E+00  0.00000000E+00  0.00000000E+00
  0.00000000E+00  0.00000000E+00  0.00000000E+00
  0.00000000E+00  0.00000000E+00  0.00000000E+00
  0.00000000E+00  0.00000000E+00  0.00000000E+00
  0.00000000E+00  0.00000000E+00  0.00000000E+00
  0.00000000E+00  0.00000000E+00  0.00000000E+00
  0.00000000E+00  0.00000000E+00  0.00000000E+00
  0.00000000E+00  0.00000000E+00  0.00000000E+00