New structure                           
    1.000000000000000     
     0.0000000000000000  -17.1805734624895479    0.0000000000000000
     0.0000000000000000   -8.5902867312447739  -14.8788130701007191
    30.0000000000000000    0.0000000000000000    0.0000000000000000
   Al   O 
   252     2
Direct
  0.4521461287795860  0.6187983464409471  0.5384121288255921
  0.6151732412292331  0.4431002918601417  0.5398850921348964
  0.7765704452107914  0.2769958926633185  0.5413933160542026
  0.9429446254834601  0.1126596101703287  0.5408924408761830
  0.9448324690071495  0.2767453438246542  0.5414339785448925
  0.9462976318200800  0.4425446303874837  0.5409067959836288
  0.7820542785485004  0.6107170888675512  0.5409018576163506
  0.6124088396542744  0.7803414847719370  0.5405991877244981
  0.4443329220240133  0.9486177341567411  0.5411557014634679
  0.6118647795149156  0.9455242763135004  0.5408205179426195
  0.7772268731885826  0.9445790667215165  0.5406753510312852
  0.9431383048206033  0.7788483435539550  0.5410394822858274
  0.9447225476595578  0.6112536274162305  0.5409813159385360
  0.8335695114630496  0.6675084792113215  0.4627255439987580
  0.6667963926180933  0.8341052363603475  0.4627708767387591
  0.7222108855148101  0.8889378399051848  0.3875562815635801
  0.8891554117368766  0.7219992515905572  0.3873312379724454
  0.9438305629378341  0.7782995556796957  0.3114353361797247
  0.7779808704874003  0.9442513737080157  0.3115135978330054
  0.9444484937808948  0.9446512750089235  0.3115788276756009
  0.8887021387379432  0.8891313559661583  0.3874741092759753
  0.8326388608461517  0.8338923369204150  0.4628242074149725
  0.7779657216283132  0.7791154610416333  0.5402769036211730
  0.7794386940416504  0.4426030269665283  0.5413121345045719
  0.6675633335790421  0.5008445525631084  0.4632725166378395
  0.8337950721248590  0.3327234050694789  0.4635792442401450
  0.8891245879327897  0.3881094787317388  0.3876830361193608
  0.7223479920676232  0.5551248868957606  0.3874695263326228
  0.7782999587879879  0.6107722892676442  0.3115164044545277
  0.6112377368832547  0.7790223541901478  0.3109138968288154
  0.6673095660924461  0.8332142083376606  0.2355873715797130
  0.8334073537371219  0.6669832016131164  0.2359394188800943
  0.8892197547385865  0.7221481671822577  0.1602334693145808
  0.7220808723218244  0.8891590881082081  0.1601878100737914
  0.7779435775202499  0.9445730103595210  0.0825686627381085
  0.9450287051053281  0.7776042067554361  0.0828136742185052
  0.9443075784598051  0.9446465622125860  0.0831250468336884
  0.8890308669720920  0.8885709109007344  0.1603625423786222
  0.8333691484832627  0.8328435339524282  0.2355441685970920
  0.7779499877763514  0.7780444320475198  0.3115150990825314
  0.7230849167794100  0.7224963818212804  0.3872088820127341
  0.6677377808137628  0.6676364755805269  0.4623728489302331
  0.5562705667736529  0.7235018316719924  0.3866244224604657
  0.5005004411978122  0.8351557416701330  0.4627781551519779
  0.3332498159345080  0.8370400150452717  0.4621257391401234
  0.2713402895562256  0.7922249624680060  0.5384003530358882
  0.1054724500807249  0.9497208867665349  0.5402696652578813
  0.2759398962040537  0.9519577465181036  0.5404760596156122
  0.4434385069089055  0.7795238838656530  0.5398922628954801
  0.5002466102959434  0.6677115736566900  0.4626965942295114
  0.6145130968903871  0.6126546704955667  0.5403695672213230
  0.6108935917253642  0.9447043316074611  0.3115809587726319
  0.4443151840182043  0.9449205069883855  0.3114879797554795
  0.3884777596036794  0.8900466926563227  0.3870659442833028
  0.3900000349928720  0.7237312852886197  0.3860217548994440
  0.2195343567192635  0.7233043147144768  0.3868997534807788
  0.0551310327187682  0.8893849161461053  0.3874372862773757
  0.9991560121889573  0.8337731662159843  0.4632888631037972
  0.1686868433389115  0.6658850079187538  0.4647382283457538
  0.2659045499581206  0.6180418294073942  0.5415918703417913
  0.1111527793195304  0.6117058717722726  0.5415557379841718
  0.2888614887379704  0.4443151655804456  0.5547413921006463
  0.4461888165739959  0.2817130240364432  0.5434613463713137
  0.6116367465208279  0.1102929036995204  0.5406388127679345
  0.6649904697875103  0.1678913726261435  0.4632855845740709
  0.8325507924247887  0.0006625243750016  0.4634625129139866
  0.8883993426793845  0.0556106616239514  0.3875335914990632
  0.7221037245020745  0.2222262059916884  0.3878153672251484
  0.7780825345271691  0.2774271386962396  0.3115622820204653
  0.6109791936790551  0.4440720023470663  0.3117437282818773
  0.6665688672705566  0.4999302912164021  0.2357646082437889
  0.4998229308290191  0.6663017414663915  0.2358355763910154
  0.5555931789301729  0.7219448106599992  0.1603455413020198
  0.3886483625134152  0.8888219752369420  0.1602467175810875
  0.3335396096734504  0.8332177925223808  0.2357074433787543
  0.2775459820295117  0.7778750987426800  0.3114143518850774
  0.1108277707893204  0.9445389742259208  0.3116622352610906
  0.2773231519244159  0.9451635027376117  0.3115899692447169
  0.2213827930711332  0.8906219337747528  0.3873824663552604
  0.1634127722269050  0.8366352096185294  0.4625480148357188
  0.1134993405141421  0.7766016462965825  0.5410812731094069
  0.9446436953352543  0.6109397558178530  0.3116103017606152
  0.9444991372020318  0.4444643836986501  0.3118027544896478
  0.9444330624520495  0.2774104509651413  0.3117375787126154
  0.9440142456276406  0.1113069654978190  0.3118203915495049
  0.8333094470376071  0.1668201077025981  0.2358704767616971
  0.6664878289250418  0.1663907992995448  0.2359560356184538
  0.5001119179437098  0.3335882466170153  0.2356286864265650
  0.5556237850810516  0.3892758982002739  0.1602015933052270
  0.3889913023402890  0.5561094299671320  0.1603901698853827
  0.4439893290841317  0.6113943428017636  0.0824149819861781
  0.6109356563920004  0.4449080738511741  0.0823776050410150
  0.7777113144074911  0.2778423016994278  0.0825675909276441
  0.7224736404586303  0.2221430374540537  0.1601369790617322
  0.7222562102675704  0.0554894395432047  0.1600663632048149
  0.8889772247302656  0.0558732746970102  0.1604042248309382
  0.8330158768063711  0.9998549706612553  0.2358195278801304
  0.7777521193235000  0.1110603758753717  0.3116689445970240
  0.6109996672883380  0.1115205109034221  0.3121376222643114
  0.5553517197132004  0.0561010657320836  0.3872637135056481
  0.5003958408676297  0.0010174638485658  0.4631215778192567
  0.3331736018780860  0.1679292707763956  0.4635251707952294
  0.1673658742654955  0.3332021764262331  0.4637729150218526
  0.0004668184830290  0.4998152743532464  0.4636630242979742
  0.0569511789007220  0.5547340263233536  0.3878971312227640
  0.2225279800182794  0.3879647505503535  0.3876179439366564
  0.2781606625747634  0.4446104486968613  0.3116288576655931
  0.1118842595335620  0.6107293440767256  0.3119397958796383
  0.1671519365398827  0.6662280446105302  0.2355553750057286
 -0.0000725855886125  0.8330202980089019  0.2357778675953041
  0.0557116010724586  0.8888525480754446  0.1602072674021294
  0.2224745641366143  0.7223338396078011  0.1601641541999924
  0.2782794144099252  0.7770268474888902  0.0821602091574735
  0.1111934759109157  0.9440969315537848  0.0830117544109443
  0.2778350604971304  0.9442356151976409  0.0829074404871408
  0.4446758540615761  0.9443006740984546  0.0832458427131874
  0.6102456060104885  0.7780530943666588  0.0831467415292207
  0.7779753075528005  0.6105073017231558  0.0829756221438832
  0.7221821061007349  0.5557050133763913  0.1600936474903539
  0.8335075038585814  0.4999228786487394  0.2357898025280245
  0.8891632853065123  0.3884447893538096  0.1603200691493802
  0.8338096816869307  0.3331004508738738  0.2359022349169703
  0.7222623859879058  0.3889083111775954  0.1602510165116792
  0.6665300498981811  0.3332238005594126  0.2357444196365887
  0.6112683719612646  0.2776419413378868  0.3117076648782313
  0.5543654816520667  0.2239494301683879  0.3885104009816021
  0.4444279898141323  0.2777838847891267  0.3117818917554601
  0.3896812455889442  0.3888681356191398  0.3882519972184698
  0.4950009754985334  0.3411708231016811  0.4673086940584451
  0.3323034116113610  0.4993481160134256  0.4652084167804957
  0.3887150032819009  0.5545455332175311  0.3860905754190389
  0.4445496700508998  0.6108877376802639  0.3119356255303741
  0.2775272686661269  0.6112079245332905  0.3118356332970528
  0.3333972732796731  0.5003445760172256  0.2357571846323266
  0.1663738137817586  0.4998341460779523  0.2356887819659502
  0.0001735532785440  0.4997209544663918  0.2357855914629117
  0.1666478584747809  0.3331800591479880  0.2360127072769003
  0.2216658801806300  0.3889242623018101  0.1603695498387608
  0.3890160033629810  0.2217565317823763  0.1600713917388326
  0.5557338355239446  0.0557809833779401  0.1601329507100346
  0.5005608528747634  0.0000049456006015  0.2359769888448680
  0.3333695946981202  0.1669641891235733  0.2359248103817520
  0.2777910955212934  0.2775412462412766  0.3117880417818239
  0.1113468613005601  0.2774870509873868  0.3116477530963589
  0.0554412180076403  0.2221184414313978  0.3876609064351030
 -0.0003431296036749  0.1670501285020043  0.4631802388076662
  0.1654400344964163  0.0023311941902055  0.4623386657598069
  0.2217389373449359  0.0567237596334914  0.3871835401677545
  0.2776121755200436  0.1115164641583910  0.3116264670891647
  0.3887968783920699  0.0560388923903631  0.3873685947580485
  0.3882277604715042  0.2226055959328494  0.3876890140193832
  0.4996823425019057  0.1676194889137547  0.4627929346774856
  0.4451806906911868  0.1136846844537826  0.5408857165925882
  0.2763876444660690  0.1145497515020003  0.5410308080759265
  0.1115690667810349  0.2773122551858031  0.5414073963086773
  0.2795404802879712  0.2797121504158283  0.5417990266744358
  0.1135512664560268  0.4441606201050167  0.5416273091845423
  0.1667336676881162  0.4996008960722502  0.4642049054815681
  0.3330551611407471  0.3349363584650177  0.4644499806786807
  0.4999643422296366  0.5002708088073614  0.2356211499013323
  0.4448177763173600  0.4441169811873316  0.3114967201282522
  0.7218147935797701  0.0561427799419219  0.3874719623812353
  0.6668421803660723 -0.0009060054673388  0.4627816086765523
  0.8338523818140199  0.4996709574218682  0.4635526465696383
  0.8897176044725099  0.5546476268008320  0.3876738298360738
  0.4439290728856954  0.7772100748846937  0.0827148802309458
  0.3885575007561271  0.7223211490576160  0.1601767664810754
  0.3337567163829548  0.6661324775755523  0.2359716715328591
  0.1667538067481646  0.8333955927668260  0.2356467771483706
  0.1113936523717809  0.7776880821713096  0.3114280244284839
  0.0564085114009796  0.7216093912298137  0.3878727050696196
  0.9986688858844663  0.6673870326350154  0.4629056538718164
  0.6109390154559320  0.6106113890844513  0.0824298411124976
  0.5553752470529216  0.5558267022528036  0.1601702292689353
  0.2221328940163840  0.8889457414505385  0.1602568007984405
  0.7777702407958962  0.4442859474051333  0.0828032958901142
  0.9444633338926313  0.4443610875828977  0.0827970279801113
  0.9445383024567238  0.6108446857101701  0.0829304071778983
  0.8890793096074584  0.5553585318146115  0.1605000884905501
  0.7222450566863815  0.7224453834877904  0.1604264236532019
  0.6670274179643901  0.6663256609680586  0.2360340163616614
  0.6111353371063696  0.6107451457028018  0.3113888902459017
  0.5556439584980128  0.5556093702536250  0.3876099497604503
  0.5011586671334064  0.5010898192662333  0.4608245145027230
  0.5554072368823316  0.3871517714824027  0.3879158833538420
  0.7223677000201477  0.3884746044541049  0.3877868971652724
  0.6661276414141478  0.3327504970197606  0.4636051492089986
  0.6058102819860598  0.2823032868499962  0.5408362473476418
  0.7749525164661016  0.1134919863517694  0.5411951806206612
  0.8329330128735117  0.1671282809584037  0.4636860407362306
  0.8883301832451093  0.2222204359134780  0.3877222790966834
  0.9444939572736344  0.2776380907733488  0.0822494992561308
  0.9444913553624185  0.1111986998105819  0.0827047372861776
  0.8890392824807865  0.2222470090790812  0.1603622751708962
  0.5001709700778493  0.8333786062646967  0.2358287588693788
  0.4438917325825989  0.7780767025189145  0.3112822476410964
  0.7783793901026573  0.7779308997575134  0.0826686767457168
  0.6108561098033171  0.9448822505964758  0.0828941538608776
  0.5557580147895840  0.8888443642372419  0.1605712043603944
  0.7778060683502995  0.1110915321646187  0.0825443457427786
  0.6114193372903709  0.1112301799235874  0.0824407174813729
  0.4439434403256111  0.2781286672448257  0.0826149486544147
  0.2774833842870287  0.4448357038872979  0.0828011792913419
  0.1114993266089179  0.6109827623723305  0.0826200751708960
  0.0554391622737170  0.5559133840525327  0.1600991352261794
  0.0556863734722051  0.7223953137793729  0.1602326291719079
 -0.0000489809986761  0.6661739329906325  0.2360404579960597
  0.6111643616343755  0.2781392005968569  0.0825809121561313
  0.5557765201332292  0.2218481092346177  0.1601111321907662
  0.5003249533738990  0.1661069673434821  0.2359922143671750
  0.4443652065057310  0.1112053535611993  0.3116677535213652
  0.3887694680038624  0.3893039202748071  0.1605404590775536
  0.3332068401469562  0.3327094938797903  0.2358587170539864
  0.4440792580353603  0.4457818749675982  0.0829719825523539
  0.2784142936811833  0.6110127246345027  0.0825263521925973
  0.2221071066464235  0.5559044306455579  0.1602967659769933
  0.1117774763424881  0.7774140914377669  0.0827033164380174
  0.6664198405142595  0.0001932024078112  0.2359065863243092
  0.7778985766451777  0.4441613486149880  0.3115130833447454
  0.1112577526329722  0.4443489575157354  0.3116564599544348
  0.0559609735994534  0.3884300149312943  0.3878337947005843
  0.0002108661541203  0.3327700920746002  0.4637357114131861
  0.1663353579190531  0.1674580493912423  0.4631300039270508
  0.1097173027326671  0.1125519544259247  0.5403340756349071
  0.5554546402549779  0.8901755163253461  0.3872480532655924
  0.2235412573177716  0.5552255080067570  0.3888047378894766
  0.2223777652854969  0.2221903152044492  0.3876470364873059
  0.3303510758331590  0.6737315007561314  0.4581808187767172
  0.3328922734591586  0.0017323477748899  0.4630502933563018
  0.4602967348601729  0.4421003618147442  0.5722231361846931
  0.1109561946743616  0.4443571097839986  0.0827278627427867
  0.1110431931107081  0.2777181762486893  0.0822654691722193
  0.0554362860063671  0.2222355901483972  0.1600090057731914
  0.0002659284810840  0.1665704167223744  0.2359409436410368
  0.1665763802310607  0.0000945184544232  0.2360879166776177
  0.2220420135164259  0.0557808822369498  0.1604806863656934
  0.2778206420133286  0.1110357922335078  0.0826426823744519
  0.3884792697557757  0.0559635445488381  0.1605708640038156
  0.3334091052439943 -0.0000365963450972  0.2359632371745887
  0.1664659866171437  0.1667995730748704  0.2358841650969803
  0.1108809095150321  0.1113123033739238  0.3116692946372246
  0.0546421371850367  0.0563528810721813  0.3872905122592297
  0.9986727381803940  0.0011902281837243  0.4630802758846809
  0.2779421363230029  0.2775145375155986  0.0825565125397406
  0.2219764777436504  0.2222514134663189  0.1603736931121586
  0.0556787212422314  0.3884463164877476  0.1602831998178056
  0.0001982769328286  0.3331290310256620  0.2359174306140343
  0.4444272788737678  0.1109732773754073  0.0825869227272466
  0.1108138338185431  0.1113944048624348  0.0822142044706687
  0.0557407118588501  0.0559220991694583  0.1605919367512590
 -0.0000584627537467 -0.0001479884240646  0.2358540332837971
  0.9422768741319127  0.9460069860338232  0.5413452943895545
  0.3904471300856801  0.5714938783304935  0.5672837257684389
  0.3783846941797384  0.4016979447555964  0.5884438992463443
 
  0.00000000E+00  0.00000000E+00  0.00000000E+00
  0.00000000E+00  0.00000000E+00  0.00000000E+00
  0.00000000E+00  0.00000000E+00  0.00000000E+00
  0.00000000E+00  0.00000000E+00  0.00000000E+00
  0.00000000E+00  0.00000000E+00  0.00000000E+00
  0.00000000E+00  0.00000000E+00  0.00000000E+00
  0.00000000E+00  0.00000000E+00  0.00000000E+00
  0.00000000E+00  0.00000000E+00  0.00000000E+00
  0.00000000E+00  0.00000000E+00  0.00000000E+00
  0.00000000E+00  0.00000000E+00  0.00000000E+00
  0.00000000E+00  0.00000000E+00  0.00000000E+00
  0.00000000E+00  0.00000000E+00  0.00000000E+00
  0.00000000E+00  0.00000000E+00  0.00000000E+00
  0.00000000E+00  0.00000000E+00  0.00000000E+00
  0.00000000E+00  0.00000000E+00  0.00000000E+00
  0.00000000E+00  0.00000000E+00  0.00000000E+00
  0.00000000E+00  0.00000000E+00  0.00000000E+00
  0.00000000E+00  0.00000000E+00  0.00000000E+00
  0.00000000E+00  0.00000000E+00  0.00000000E+00
  0.00000000E+00  0.00000000E+00  0.00000000E+00
  0.00000000E+00  0.00000000E+00  0.00000000E+00
  0.00000000E+00  0.00000000E+00  0.00000000E+00
  0.00000000E+00  0.00000000E+00  0.00000000E+00
  0.00000000E+00  0.00000000E+00  0.00000000E+00
  0.00000000E+00  0.00000000E+00  0.00000000E+00
  0.00000000E+00  0.00000000E+00  0.00000000E+00
  0.00000000E+00  0.00000000E+00  0.00000000E+00
  0.00000000E+00  0.00000000E+00  0.00000000E+00
  0.00000000E+00  0.00000000E+00  0.00000000E+00
  0.00000000E+00  0.00000000E+00  0.00000000E+00
  0.00000000E+00  0.00000000E+00  0.00000000E+00
  0.00000000E+00  0.00000000E+00  0.00000000E+00
  0.00000000E+00  0.00000000E+00  0.00000000E+00
  0.00000000E+00  0.00000000E+00  0.00000000E+00
  0.00000000E+00  0.00000000E+00  0.00000000E+00
  0.00000000E+00  0.00000000E+00  0.00000000E+00
  0.00000000E+00  0.00000000E+00  0.00000000E+00
  0.00000000E+00  0.00000000E+00  0.00000000E+00
  0.00000000E+00  0.00000000E+00  0.00000000E+00
  0.00000000E+00  0.00000000E+00  0.00000000E+00
  0.00000000E+00  0.00000000E+00  0.00000000E+00
  0.00000000E+00  0.00000000E+00  0.00000000E+00
  0.00000000E+00  0.00000000E+00  0.00000000E+00
  0.00000000E+00  0.00000000E+00  0.00000000E+00
  0.00000000E+00  0.00000000E+00  0.00000000E+00
  0.00000000E+00  0.00000000E+00  0.00000000E+00
  0.00000000E+00  0.00000000E+00  0.00000000E+00
  0.00000000E+00  0.00000000E+00  0.00000000E+00
  0.00000000E+00  0.00000000E+00  0.00000000E+00
  0.00000000E+00  0.00000000E+00  0.00000000E+00
  0.00000000E+00  0.00000000E+00  0.00000000E+00
  0.00000000E+00  0.00000000E+00  0.00000000E+00
  0.00000000E+00  0.00000000E+00  0.00000000E+00
  0.00000000E+00  0.00000000E+00  0.00000000E+00
  0.00000000E+00  0.00000000E+00  0.00000000E+00
  0.00000000E+00  0.00000000E+00  0.00000000E+00
  0.00000000E+00  0.00000000E+00  0.00000000E+00
  0.00000000E+00  0.00000000E+00  0.00000000E+00
  0.00000000E+00  0.00000000E+00  0.00000000E+00
  0.00000000E+00  0.00000000E+00  0.00000000E+00
  0.00000000E+00  0.00000000E+00  0.00000000E+00
  0.00000000E+00  0.00000000E+00  0.00000000E+00
  0.00000000E+00  0.00000000E+00  0.00000000E+00
  0.00000000E+00  0.00000000E+00  0.00000000E+00
  0.00000000E+00  0.00000000E+00  0.00000000E+00
  0.00000000E+00  0.00000000E+00  0.00000000E+00
  0.00000000E+00  0.00000000E+00  0.00000000E+00
  0.00000000E+00  0.00000000E+00  0.00000000E+00
  0.00000000E+00  0.00000000E+00  0.00000000E+00
  0.00000000E+00  0.00000000E+00  0.00000000E+00
  0.00000000E+00  0.00000000E+00  0.00000000E+00
  0.00000000E+00  0.00000000E+00  0.00000000E+00
  0.00000000E+00  0.00000000E+00  0.00000000E+00
  0.00000000E+00  0.00000000E+00  0.00000000E+00
  0.00000000E+00  0.00000000E+00  0.00000000E+00
  0.00000000E+00  0.00000000E+00  0.00000000E+00
  0.00000000E+00  0.00000000E+00  0.00000000E+00
  0.00000000E+00  0.00000000E+00  0.00000000E+00
  0.00000000E+00  0.00000000E+00  0.00000000E+00
  0.00000000E+00  0.00000000E+00  0.00000000E+00
  0.00000000E+00  0.00000000E+00  0.00000000E+00
  0.00000000E+00  0.00000000E+00  0.00000000E+00
  0.00000000E+00  0.00000000E+00  0.00000000E+00
  0.00000000E+00  0.00000000E+00  0.00000000E+00
  0.00000000E+00  0.00000000E+00  0.00000000E+00
  0.00000000E+00  0.00000000E+00  0.00000000E+00
  0.00000000E+00  0.00000000E+00  0.00000000E+00
  0.00000000E+00  0.00000000E+00  0.00000000E+00
  0.00000000E+00  0.00000000E+00  0.00000000E+00
  0.00000000E+00  0.00000000E+00  0.00000000E+00
  0.00000000E+00  0.00000000E+00  0.00000000E+00
  0.00000000E+00  0.00000000E+00  0.00000000E+00
  0.00000000E+00  0.00000000E+00  0.00000000E+00
  0.00000000E+00  0.00000000E+00  0.00000000E+00
  0.00000000E+00  0.00000000E+00  0.00000000E+00
  0.00000000E+00  0.00000000E+00  0.00000000E+00
  0.00000000E+00  0.00000000E+00  0.00000000E+00
  0.00000000E+00  0.00000000E+00  0.00000000E+00
  0.00000000E+00  0.00000000E+00  0.00000000E+00
  0.00000000E+00  0.00000000E+00  0.00000000E+00
  0.00000000E+00  0.00000000E+00  0.00000000E+00
  0.00000000E+00  0.00000000E+00  0.00000000E+00
  0.00000000E+00  0.00000000E+00  0.00000000E+00
  0.00000000E+00  0.00000000E+00  0.00000000E+00
  0.00000000E+00  0.00000000E+00  0.00000000E+00
  0.00000000E+00  0.00000000E+00  0.00000000E+00
  0.00000000E+00  0.00000000E+00  0.00000000E+00
  0.00000000E+00  0.00000000E+00  0.00000000E+00
  0.00000000E+00  0.00000000E+00  0.00000000E+00
  0.00000000E+00  0.00000000E+00  0.00000000E+00
  0.00000000E+00  0.00000000E+00  0.00000000E+00
  0.00000000E+00  0.00000000E+00  0.00000000E+00
  0.00000000E+00  0.00000000E+00  0.00000000E+00
  0.00000000E+00  0.00000000E+00  0.00000000E+00
  0.00000000E+00  0.00000000E+00  0.00000000E+00
  0.00000000E+00  0.00000000E+00  0.00000000E+00
  0.00000000E+00  0.00000000E+00  0.00000000E+00
  0.00000000E+00  0.00000000E+00  0.00000000E+00
  0.00000000E+00  0.00000000E+00  0.00000000E+00
  0.00000000E+00  0.00000000E+00  0.00000000E+00
  0.00000000E+00  0.00000000E+00  0.00000000E+00
  0.00000000E+00  0.00000000E+00  0.00000000E+00
  0.00000000E+00  0.00000000E+00  0.00000000E+00
  0.00000000E+00  0.00000000E+00  0.00000000E+00
  0.00000000E+00  0.00000000E+00  0.00000000E+00
  0.00000000E+00  0.00000000E+00  0.00000000E+00
  0.00000000E+00  0.00000000E+00  0.00000000E+00
  0.00000000E+00  0.00000000E+00  0.00000000E+00
  0.00000000E+00  0.00000000E+00  0.00000000E+00
  0.00000000E+00  0.00000000E+00  0.00000000E+00
  0.00000000E+00  0.00000000E+00  0.00000000E+00
  0.00000000E+00  0.00000000E+00  0.00000000E+00
  0.00000000E+00  0.00000000E+00  0.00000000E+00
  0.00000000E+00  0.00000000E+00  0.00000000E+00
  0.00000000E+00  0.00000000E+00  0.00000000E+00
  0.00000000E+00  0.00000000E+00  0.00000000E+00
  0.00000000E+00  0.00000000E+00  0.00000000E+00
  0.00000000E+00  0.00000000E+00  0.00000000E+00
  0.00000000E+00  0.00000000E+00  0.00000000E+00
  0.00000000E+00  0.00000000E+00  0.00000000E+00
  0.00000000E+00  0.00000000E+00  0.00000000E+00
  0.00000000E+00  0.00000000E+00  0.00000000E+00
  0.00000000E+00  0.00000000E+00  0.00000000E+00
  0.00000000E+00  0.00000000E+00  0.00000000E+00
  0.00000000E+00  0.00000000E+00  0.00000000E+00
  0.00000000E+00  0.00000000E+00  0.00000000E+00
  0.00000000E+00  0.00000000E+00  0.00000000E+00
  0.00000000E+00  0.00000000E+00  0.00000000E+00
  0.00000000E+00  0.00000000E+00  0.00000000E+00
  0.00000000E+00  0.00000000E+00  0.00000000E+00
  0.00000000E+00  0.00000000E+00  0.00000000E+00
  0.00000000E+00  0.00000000E+00  0.00000000E+00
  0.00000000E+00  0.00000000E+00  0.00000000E+00
  0.00000000E+00  0.00000000E+00  0.00000000E+00
  0.00000000E+00  0.00000000E+00  0.00000000E+00
  0.00000000E+00  0.00000000E+00  0.00000000E+00
  0.00000000E+00  0.00000000E+00  0.00000000E+00
  0.00000000E+00  0.00000000E+00  0.00000000E+00
  0.00000000E+00  0.00000000E+00  0.00000000E+00
  0.00000000E+00  0.00000000E+00  0.00000000E+00
  0.00000000E+00  0.00000000E+00  0.00000000E+00
  0.00000000E+00  0.00000000E+00  0.00000000E+00
  0.00000000E+00  0.00000000E+00  0.00000000E+00
  0.00000000E+00  0.00000000E+00  0.00000000E+00
  0.00000000E+00  0.00000000E+00  0.00000000E+00
  0.00000000E+00  0.00000000E+00  0.00000000E+00
  0.00000000E+00  0.00000000E+00  0.00000000E+00
  0.00000000E+00  0.00000000E+00  0.00000000E+00
  0.00000000E+00  0.00000000E+00  0.00000000E+00
  0.00000000E+00  0.00000000E+00  0.00000000E+00
  0.00000000E+00  0.00000000E+00  0.00000000E+00
  0.00000000E+00  0.00000000E+00  0.00000000E+00
  0.00000000E+00  0.00000000E+00  0.00000000E+00
  0.00000000E+00  0.00000000E+00  0.00000000E+00
  0.00000000E+00  0.00000000E+00  0.00000000E+00
  0.00000000E+00  0.00000000E+00  0.00000000E+00
  0.00000000E+00  0.00000000E+00  0.00000000E+00
  0.00000000E+00  0.00000000E+00  0.00000000E+00
  0.00000000E+00  0.00000000E+00  0.00000000E+00
  0.00000000E+00  0.00000000E+00  0.00000000E+00
  0.00000000E+00  0.00000000E+00  0.00000000E+00
  0.00000000E+00  0.00000000E+00  0.00000000E+00
  0.00000000E+00  0.00000000E+00  0.00000000E+00
  0.00000000E+00  0.00000000E+00  0.00000000E+00
  0.00000000E+00  0.00000000E+00  0.00000000E+00
  0.00000000E+00  0.00000000E+00  0.00000000E+00
  0.00000000E+00  0.00000000E+00  0.00000000E+00
  0.00000000E+00  0.00000000E+00  0.00000000E+00
  0.00000000E+00  0.00000000E+00  0.00000000E+00
  0.00000000E+00  0.00000000E+00  0.00000000E+00
  0.00000000E+00  0.00000000E+00  0.00000000E+00
  0.00000000E+00  0.00000000E+00  0.00000000E+00
  0.00000000E+00  0.00000000E+00  0.00000000E+00
  0.00000000E+00  0.00000000E+00  0.00000000E+00
  0.00000000E+00  0.00000000E+00  0.00000000E+00
  0.00000000E+00  0.00000000E+00  0.00000000E+00
  0.00000000E+00  0.00000000E+00  0.00000000E+00
  0.00000000E+00  0.00000000E+00  0.00000000E+00
  0.00000000E+00  0.00000000E+00  0.00000000E+00
  0.00000000E+00  0.00000000E+00  0.00000000E+00
  0.00000000E+00  0.00000000E+00  0.00000000E+00
  0.00000000E+00  0.00000000E+00  0.00000000E+00
  0.00000000E+00  0.00000000E+00  0.00000000E+00
  0.00000000E+00  0.00000000E+00  0.00000000E+00
  0.00000000E+00  0.00000000E+00  0.00000000E+00
  0.00000000E+00  0.00000000E+00  0.00000000E+00
  0.00000000E+00  0.00000000E+00  0.00000000E+00
  0.00000000E+00  0.00000000E+00  0.00000000E+00
  0.00000000E+00  0.00000000E+00  0.00000000E+00
  0.00000000E+00  0.00000000E+00  0.00000000E+00
  0.00000000E+00  0.00000000E+00  0.00000000E+00
  0.00000000E+00  0.00000000E+00  0.00000000E+00
  0.00000000E+00  0.00000000E+00  0.00000000E+00
  0.00000000E+00  0.00000000E+00  0.00000000E+00
  0.00000000E+00  0.00000000E+00  0.00000000E+00
  0.00000000E+00  0.00000000E+00  0.00000000E+00
  0.00000000E+00  0.00000000E+00  0.00000000E+00
  0.00000000E+00  0.00000000E+00  0.00000000E+00
  0.00000000E+00  0.00000000E+00  0.00000000E+00
  0.00000000E+00  0.00000000E+00  0.00000000E+00
  0.00000000E+00  0.00000000E+00  0.00000000E+00
  0.00000000E+00  0.00000000E+00  0.00000000E+00
  0.00000000E+00  0.00000000E+00  0.00000000E+00
  0.00000000E+00  0.00000000E+00  0.00000000E+00
  0.00000000E+00  0.00000000E+00  0.00000000E+00
  0.00000000E+00  0.00000000E+00  0.00000000E+00
  0.00000000E+00  0.00000000E+00  0.00000000E+00
  0.00000000E+00  0.00000000E+00  0.00000000E+00
  0.00000000E+00  0.00000000E+00  0.00000000E+00
  0.00000000E+00  0.00000000E+00  0.00000000E+00
  0.00000000E+00  0.00000000E+00  0.00000000E+00
  0.00000000E+00  0.00000000E+00  0.00000000E+00
  0.00000000E+00  0.00000000E+00  0.00000000E+00
  0.00000000E+00  0.00000000E+00  0.00000000E+00
  0.00000000E+00  0.00000000E+00  0.00000000E+00
  0.00000000E+00  0.00000000E+00  0.00000000E+00
  0.00000000E+00  0.00000000E+00  0.00000000E+00
  0.00000000E+00  0.00000000E+00  0.00000000E+00
  0.00000000E+00  0.00000000E+00  0.00000000E+00
  0.00000000E+00  0.00000000E+00  0.00000000E+00
  0.00000000E+00  0.00000000E+00  0.00000000E+00
  0.00000000E+00  0.00000000E+00  0.00000000E+00
  0.00000000E+00  0.00000000E+00  0.00000000E+00
  0.00000000E+00  0.00000000E+00  0.00000000E+00
  0.00000000E+00  0.00000000E+00  0.00000000E+00
  0.00000000E+00  0.00000000E+00  0.00000000E+00
  0.00000000E+00  0.00000000E+00  0.00000000E+00
  0.00000000E+00  0.00000000E+00  0.00000000E+00
  0.00000000E+00  0.00000000E+00  0.00000000E+00
  0.00000000E+00  0.00000000E+00  0.00000000E+00
  0.00000000E+00  0.00000000E+00  0.00000000E+00
  0.00000000E+00  0.00000000E+00  0.00000000E+00
  0.00000000E+00  0.00000000E+00  0.00000000E+00
  0.00000000E+00  0.00000000E+00  0.00000000E+00
