New structure                           
    1.000000000000000     
    16.1980000000000004    0.0000000000000000    0.0000000000000000
     0.0000000000000000   16.1980000000000004    0.0000000000000000
     0.0000000000000000    0.0000000000000000   16.1980000000000004
   Al   O 
   256     1
Direct
 -0.0050375511831060 -0.0000000000000000  0.0000000000000000
  0.0008672015600146  0.1241327984399854  0.1241327984399854
  0.1250000000000000 -0.0000000000000000  0.1300375511831060
  0.1250000000000000  0.1300375511831060  0.0000000000000000
 -0.0005645366276685 -0.0000000000000000  0.2510456053977022
  0.0000571600907157  0.1249428399092843  0.3752720470730063
  0.1250000000000000 -0.0000000000000000  0.3744090507395823
  0.1250000000000000  0.1255645366276684  0.2510456053977022
  0.0002646600377061 -0.0000000000000000  0.5000000000000000
  0.0000571600907157  0.1249428399092843  0.6247279529269937
  0.1250000000000000 -0.0000000000000000  0.6255909492604177
  0.1250000000000000  0.1247353399622939  0.5000000000000000
 -0.0005645366276685 -0.0000000000000000  0.7489543946022978
  0.0008672015600146  0.1241327984399854  0.8758672015600147
  0.1250000000000000 -0.0000000000000000  0.8699624488168942
  0.1250000000000000  0.1255645366276684  0.7489543946022978
 -0.0005645366276685  0.2510456053977022  0.0000000000000000
  0.0000571600907157  0.3752720470730063  0.1249428399092843
  0.1250000000000000  0.2510456053977022  0.1255645366276684
  0.1250000000000000  0.3744090507395823  0.0000000000000000
  0.0001065048680955  0.2495318509885783  0.2495318509885783
 -0.0000535655404471  0.3748385598271876  0.3748385598271876
  0.1250000000000000  0.2499707912062917  0.3750195245928240
  0.1250000000000000  0.3750195245928240  0.2499707912062917
  0.0001448898184597  0.2497976848100116  0.5000000000000000
 -0.0000535655404471  0.3748385598271876  0.6251614401728125
  0.1250000000000000  0.2499707912062917  0.6249804754071762
  0.1250000000000000  0.3751762751178240  0.5000000000000000
  0.0001065048680955  0.2495318509885783  0.7504681490114216
  0.0000571600907157  0.3752720470730063  0.8750571600907157
  0.1250000000000000  0.2510456053977022  0.8744354633723314
  0.1250000000000000  0.3750195245928240  0.7500292087937083
  0.0002646600377061  0.5000000000000000  0.0000000000000000
  0.0000571600907157  0.6247279529269937  0.1249428399092843
  0.1250000000000000  0.5000000000000000  0.1247353399622939
  0.1250000000000000  0.6255909492604177  0.0000000000000000
  0.0001448898184597  0.5000000000000000  0.2497976848100116
 -0.0000535655404471  0.6251614401728125  0.3748385598271876
  0.1250000000000000  0.5000000000000000  0.3751762751178240
  0.1250000000000000  0.6249804754071762  0.2499707912062917
 -0.0002142941321514  0.5000000000000000  0.5000000000000000
 -0.0000535655404471  0.6251614401728125  0.6251614401728125
  0.1250000000000000  0.5000000000000000  0.6248237248821764
  0.1250000000000000  0.6248237248821764  0.5000000000000000
  0.0001448898184597  0.5000000000000000  0.7502023151899887
  0.0000571600907157  0.6247279529269937  0.8750571600907157
  0.1250000000000000  0.5000000000000000  0.8752646600377061
  0.1250000000000000  0.6249804754071762  0.7500292087937083
 -0.0005645366276685  0.7489543946022978  0.0000000000000000
  0.0008672015600146  0.8758672015600147  0.1241327984399854
  0.1250000000000000  0.7489543946022978  0.1255645366276684
  0.1250000000000000  0.8699624488168942  0.0000000000000000
  0.0001065048680955  0.7504681490114216  0.2495318509885783
  0.0000571600907157  0.8750571600907157  0.3752720470730063
  0.1250000000000000  0.7500292087937083  0.3750195245928240
  0.1250000000000000  0.8744354633723314  0.2510456053977022
  0.0001448898184597  0.7502023151899887  0.5000000000000000
  0.0000571600907157  0.8750571600907157  0.6247279529269937
  0.1250000000000000  0.7500292087937083  0.6249804754071762
  0.1250000000000000  0.8752646600377061  0.5000000000000000
  0.0001065048680955  0.7504681490114216  0.7504681490114216
  0.0008672015600146  0.8758672015600147  0.8758672015600147
  0.1250000000000000  0.7489543946022978  0.8744354633723314
  0.1250000000000000  0.8744354633723314  0.7489543946022978
  0.2550375511831061 -0.0000000000000000  0.0000000000000000
  0.2491327984399853  0.1241327984399854  0.1241327984399854
  0.3760456053977022 -0.0000000000000000  0.1255645366276684
  0.3760456053977022  0.1255645366276684  0.0000000000000000
  0.2505645366276684 -0.0000000000000000  0.2510456053977022
  0.2499428399092843  0.1249428399092843  0.3752720470730063
  0.3749707912062920 -0.0000000000000000  0.3750195245928240
  0.3745318509885785  0.1248934951319044  0.2495318509885783
  0.2497353399622939 -0.0000000000000000  0.5000000000000000
  0.2499428399092843  0.1249428399092843  0.6247279529269937
  0.3749707912062920 -0.0000000000000000  0.6249804754071762
  0.3747976848100115  0.1248551101815403  0.5000000000000000
  0.2505645366276684 -0.0000000000000000  0.7489543946022978
  0.2491327984399853  0.1241327984399854  0.8758672015600147
  0.3760456053977022 -0.0000000000000000  0.8744354633723314
  0.3745318509885785  0.1248934951319044  0.7504681490114216
  0.2505645366276684  0.2510456053977022  0.0000000000000000
  0.2499428399092843  0.3752720470730063  0.1249428399092843
  0.3745318509885785  0.2495318509885783  0.1248934951319044
  0.3749707912062920  0.3750195245928240  0.0000000000000000
  0.2498934951319045  0.2495318509885783  0.2495318509885783
  0.2500535655404470  0.3748385598271876  0.3748385598271876
  0.3749528030366925  0.2499528030366925  0.3749868064160544
  0.3749528030366925  0.3749868064160544  0.2499528030366925
  0.2498551101815404  0.2497976848100116  0.5000000000000000
  0.2500535655404470  0.3748385598271876  0.6251614401728125
  0.3749528030366925  0.2499528030366925  0.6250131935839459
  0.3748659676094303  0.3749053253619784  0.5000000000000000
  0.2498934951319045  0.2495318509885783  0.7504681490114216
  0.2499428399092843  0.3752720470730063  0.8750571600907157
  0.3745318509885785  0.2495318509885783  0.8751065048680952
  0.3749528030366925  0.3749868064160544  0.7500471969633076
  0.2497353399622939  0.5000000000000000  0.0000000000000000
  0.2499428399092843  0.6247279529269937  0.1249428399092843
  0.3747976848100115  0.5000000000000000  0.1248551101815403
  0.3749707912062920  0.6249804754071762  0.0000000000000000
  0.2498551101815404  0.5000000000000000  0.2497976848100116
  0.2500535655404470  0.6251614401728125  0.3748385598271876
  0.3748659676094303  0.5000000000000000  0.3749053253619784
  0.3749528030366925  0.6250131935839459  0.2499528030366925
  0.2502142941321514  0.5000000000000000  0.5000000000000000
  0.2500535655404470  0.6251614401728125  0.6251614401728125
  0.3748659676094303  0.5000000000000000  0.6250946746380216
  0.3748659676094303  0.6250946746380216  0.5000000000000000
  0.2498551101815404  0.5000000000000000  0.7502023151899887
  0.2499428399092843  0.6247279529269937  0.8750571600907157
  0.3747976848100115  0.5000000000000000  0.8751448898184597
  0.3749528030366925  0.6250131935839459  0.7500471969633076
  0.2505645366276684  0.7489543946022978  0.0000000000000000
  0.2491327984399853  0.8758672015600147  0.1241327984399854
  0.3745318509885785  0.7504681490114216  0.1248934951319044
  0.3760456053977022  0.8744354633723314  0.0000000000000000
  0.2498934951319045  0.7504681490114216  0.2495318509885783
  0.2499428399092843  0.8750571600907157  0.3752720470730063
  0.3749528030366925  0.7500471969633076  0.3749868064160544
  0.3745318509885785  0.8751065048680952  0.2495318509885783
  0.2498551101815404  0.7502023151899887  0.5000000000000000
  0.2499428399092843  0.8750571600907157  0.6247279529269937
  0.3749528030366925  0.7500471969633076  0.6250131935839459
  0.3747976848100115  0.8751448898184597  0.5000000000000000
  0.2498934951319045  0.7504681490114216  0.7504681490114216
  0.2491327984399853  0.8758672015600147  0.8758672015600147
  0.3745318509885785  0.7504681490114216  0.8751065048680952
  0.3745318509885785  0.8751065048680952  0.7504681490114216
  0.4994090507395823 -0.0000000000000000  0.0000000000000000
  0.5002720470730063  0.1249428399092843  0.1249428399092843
  0.6250000000000000 -0.0000000000000000  0.1247353399622939
  0.6250000000000000  0.1247353399622939  0.0000000000000000
  0.5000195245928241 -0.0000000000000000  0.2499707912062917
  0.4998385598271876  0.1250535655404471  0.3748385598271876
  0.6250000000000000 -0.0000000000000000  0.3751762751178240
  0.6250000000000000  0.1248551101815403  0.2497976848100116
  0.5001762751178236 -0.0000000000000000  0.5000000000000000
  0.4998385598271876  0.1250535655404471  0.6251614401728125
  0.6250000000000000 -0.0000000000000000  0.6248237248821764
  0.6250000000000000  0.1252142941321514  0.5000000000000000
  0.5000195245928241 -0.0000000000000000  0.7500292087937083
  0.5002720470730063  0.1249428399092843  0.8750571600907157
  0.6250000000000000 -0.0000000000000000  0.8752646600377061
  0.6250000000000000  0.1248551101815403  0.7502023151899887
  0.5000195245928241  0.2499707912062917  0.0000000000000000
  0.4998385598271876  0.3748385598271876  0.1250535655404471
  0.6250000000000000  0.2497976848100116  0.1248551101815403
  0.6250000000000000  0.3751762751178240  0.0000000000000000
  0.4999868064160541  0.2499528030366925  0.2499528030366925
  0.5000138908228703  0.3750138908228702  0.3750138908228702
  0.6250000000000000  0.2498659676094302  0.3749053253619784
  0.6250000000000000  0.3749053253619784  0.2498659676094302
  0.4999053253619784  0.2498659676094302  0.5000000000000000
  0.5000138908228703  0.3750138908228702  0.6249861091771297
  0.6250000000000000  0.2498659676094302  0.6250946746380216
  0.6250000000000000  0.3748844089289862  0.5000000000000000
  0.4999868064160541  0.2499528030366925  0.7500471969633076
  0.4998385598271876  0.3748385598271876  0.8749464344595530
  0.6250000000000000  0.2497976848100116  0.8751448898184597
  0.6250000000000000  0.3749053253619784  0.7501340323905697
  0.5001762751178236  0.5000000000000000  0.0000000000000000
  0.4998385598271876  0.6251614401728125  0.1250535655404471
  0.6250000000000000  0.5000000000000000  0.1252142941321514
  0.6250000000000000  0.6248237248821764  0.0000000000000000
  0.4999053253619784  0.5000000000000000  0.2498659676094302
  0.5000138908228703  0.6249861091771297  0.3750138908228702
  0.6250000000000000  0.5000000000000000  0.3748844089289862
  0.6250000000000000  0.6250946746380216  0.2498659676094302
  0.4998844089289862  0.5000000000000000  0.5000000000000000
  0.5000138908228703  0.6249861091771297  0.6249861091771297
  0.6250000000000000  0.5000000000000000  0.6251155910710137
  0.6250000000000000  0.6251155910710137  0.5000000000000000
  0.4999053253619784  0.5000000000000000  0.7501340323905697
  0.4998385598271876  0.6251614401728125  0.8749464344595530
  0.6250000000000000  0.5000000000000000  0.8747857058678484
  0.6250000000000000  0.6250946746380216  0.7501340323905697
  0.5000195245928241  0.7500292087937083  0.0000000000000000
  0.5002720470730063  0.8750571600907157  0.1249428399092843
  0.6250000000000000  0.7502023151899887  0.1248551101815403
  0.6250000000000000  0.8752646600377061  0.0000000000000000
  0.4999868064160541  0.7500471969633076  0.2499528030366925
  0.4998385598271876  0.8749464344595530  0.3748385598271876
  0.6250000000000000  0.7501340323905697  0.3749053253619784
  0.6250000000000000  0.8751448898184597  0.2497976848100116
  0.4999053253619784  0.7501340323905697  0.5000000000000000
  0.4998385598271876  0.8749464344595530  0.6251614401728125
  0.6250000000000000  0.7501340323905697  0.6250946746380216
  0.6250000000000000  0.8747857058678484  0.5000000000000000
  0.4999868064160541  0.7500471969633076  0.7500471969633076
  0.5002720470730063  0.8750571600907157  0.8750571600907157
  0.6250000000000000  0.7502023151899887  0.8751448898184597
  0.6250000000000000  0.8751448898184597  0.7502023151899887
  0.7505909492604177 -0.0000000000000000  0.0000000000000000
  0.7497279529269937  0.1249428399092843  0.1249428399092843
  0.8739543946022978 -0.0000000000000000  0.1255645366276684
  0.8739543946022978  0.1255645366276684  0.0000000000000000
  0.7499804754071762 -0.0000000000000000  0.2499707912062917
  0.7501614401728125  0.1250535655404471  0.3748385598271876
  0.8750292087937083 -0.0000000000000000  0.3750195245928240
  0.8754681490114216  0.1248934951319044  0.2495318509885783
  0.7498237248821764 -0.0000000000000000  0.5000000000000000
  0.7501614401728125  0.1250535655404471  0.6251614401728125
  0.8750292087937083 -0.0000000000000000  0.6249804754071762
  0.8752023151899887  0.1248551101815403  0.5000000000000000
  0.7499804754071762 -0.0000000000000000  0.7500292087937083
  0.7497279529269937  0.1249428399092843  0.8750571600907157
  0.8739543946022978 -0.0000000000000000  0.8744354633723314
  0.8754681490114216  0.1248934951319044  0.7504681490114216
  0.7499804754071762  0.2499707912062917  0.0000000000000000
  0.7501614401728125  0.3748385598271876  0.1250535655404471
  0.8754681490114216  0.2495318509885783  0.1248934951319044
  0.8750292087937083  0.3750195245928240  0.0000000000000000
  0.7500131935839459  0.2499528030366925  0.2499528030366925
  0.7499861091771297  0.3750138908228702  0.3750138908228702
  0.8750471969633076  0.2499528030366925  0.3749868064160544
  0.8750471969633076  0.3749868064160544  0.2499528030366925
  0.7500946746380216  0.2498659676094302  0.5000000000000000
  0.7499861091771297  0.3750138908228702  0.6249861091771297
  0.8750471969633076  0.2499528030366925  0.6250131935839459
  0.8751340323905697  0.3749053253619784  0.5000000000000000
  0.7500131935839459  0.2499528030366925  0.7500471969633076
  0.7501614401728125  0.3748385598271876  0.8749464344595530
  0.8754681490114216  0.2495318509885783  0.8751065048680952
  0.8750471969633076  0.3749868064160544  0.7500471969633076
  0.7498237248821764  0.5000000000000000  0.0000000000000000
  0.7501614401728125  0.6251614401728125  0.1250535655404471
  0.8752023151899887  0.5000000000000000  0.1248551101815403
  0.8750292087937083  0.6249804754071762  0.0000000000000000
  0.7500946746380216  0.5000000000000000  0.2498659676094302
  0.7499861091771297  0.6249861091771297  0.3750138908228702
  0.8751340323905697  0.5000000000000000  0.3749053253619784
  0.8750471969633076  0.6250131935839459  0.2499528030366925
  0.7501155910710137  0.5000000000000000  0.5000000000000000
  0.7499861091771297  0.6249861091771297  0.6249861091771297
  0.8751340323905697  0.5000000000000000  0.6250946746380216
  0.8751340323905697  0.6250946746380216  0.5000000000000000
  0.7500946746380216  0.5000000000000000  0.7501340323905697
  0.7501614401728125  0.6251614401728125  0.8749464344595530
  0.8752023151899887  0.5000000000000000  0.8751448898184597
  0.8750471969633076  0.6250131935839459  0.7500471969633076
  0.7499804754071762  0.7500292087937083  0.0000000000000000
  0.7497279529269937  0.8750571600907157  0.1249428399092843
  0.8754681490114216  0.7504681490114216  0.1248934951319044
  0.8739543946022978  0.8744354633723314  0.0000000000000000
  0.7500131935839459  0.7500471969633076  0.2499528030366925
  0.7501614401728125  0.8749464344595530  0.3748385598271876
  0.8750471969633076  0.7500471969633076  0.3749868064160544
  0.8754681490114216  0.8751065048680952  0.2495318509885783
  0.7500946746380216  0.7501340323905697  0.5000000000000000
  0.7501614401728125  0.8749464344595530  0.6251614401728125
  0.8750471969633076  0.7500471969633076  0.6250131935839459
  0.8752023151899887  0.8751448898184597  0.5000000000000000
  0.7500131935839459  0.7500471969633076  0.7500471969633076
  0.7497279529269937  0.8750571600907157  0.8750571600907157
  0.8754681490114216  0.7504681490114216  0.8751065048680952
  0.8754681490114216  0.8751065048680952  0.7504681490114216
  0.1250000000000000 -0.0000000000000000  0.0000000000000000
 
  0.00000000E+00  0.00000000E+00  0.00000000E+00
  0.00000000E+00  0.00000000E+00  0.00000000E+00
  0.00000000E+00  0.00000000E+00  0.00000000E+00
  0.00000000E+00  0.00000000E+00  0.00000000E+00
  0.00000000E+00  0.00000000E+00  0.00000000E+00
  0.00000000E+00  0.00000000E+00  0.00000000E+00
  0.00000000E+00  0.00000000E+00  0.00000000E+00
  0.00000000E+00  0.00000000E+00  0.00000000E+00
  0.00000000E+00  0.00000000E+00  0.00000000E+00
  0.00000000E+00  0.00000000E+00  0.00000000E+00
  0.00000000E+00  0.00000000E+00  0.00000000E+00
  0.00000000E+00  0.00000000E+00  0.00000000E+00
  0.00000000E+00  0.00000000E+00  0.00000000E+00
  0.00000000E+00  0.00000000E+00  0.00000000E+00
  0.00000000E+00  0.00000000E+00  0.00000000E+00
  0.00000000E+00  0.00000000E+00  0.00000000E+00
  0.00000000E+00  0.00000000E+00  0.00000000E+00
  0.00000000E+00  0.00000000E+00  0.00000000E+00
  0.00000000E+00  0.00000000E+00  0.00000000E+00
  0.00000000E+00  0.00000000E+00  0.00000000E+00
  0.00000000E+00  0.00000000E+00  0.00000000E+00
  0.00000000E+00  0.00000000E+00  0.00000000E+00
  0.00000000E+00  0.00000000E+00  0.00000000E+00
  0.00000000E+00  0.00000000E+00  0.00000000E+00
  0.00000000E+00  0.00000000E+00  0.00000000E+00
  0.00000000E+00  0.00000000E+00  0.00000000E+00
  0.00000000E+00  0.00000000E+00  0.00000000E+00
  0.00000000E+00  0.00000000E+00  0.00000000E+00
  0.00000000E+00  0.00000000E+00  0.00000000E+00
  0.00000000E+00  0.00000000E+00  0.00000000E+00
  0.00000000E+00  0.00000000E+00  0.00000000E+00
  0.00000000E+00  0.00000000E+00  0.00000000E+00
  0.00000000E+00  0.00000000E+00  0.00000000E+00
  0.00000000E+00  0.00000000E+00  0.00000000E+00
  0.00000000E+00  0.00000000E+00  0.00000000E+00
  0.00000000E+00  0.00000000E+00  0.00000000E+00
  0.00000000E+00  0.00000000E+00  0.00000000E+00
  0.00000000E+00  0.00000000E+00  0.00000000E+00
  0.00000000E+00  0.00000000E+00  0.00000000E+00
  0.00000000E+00  0.00000000E+00  0.00000000E+00
  0.00000000E+00  0.00000000E+00  0.00000000E+00
  0.00000000E+00  0.00000000E+00  0.00000000E+00
  0.00000000E+00  0.00000000E+00  0.00000000E+00
  0.00000000E+00  0.00000000E+00  0.00000000E+00
  0.00000000E+00  0.00000000E+00  0.00000000E+00
  0.00000000E+00  0.00000000E+00  0.00000000E+00
  0.00000000E+00  0.00000000E+00  0.00000000E+00
  0.00000000E+00  0.00000000E+00  0.00000000E+00
  0.00000000E+00  0.00000000E+00  0.00000000E+00
  0.00000000E+00  0.00000000E+00  0.00000000E+00
  0.00000000E+00  0.00000000E+00  0.00000000E+00
  0.00000000E+00  0.00000000E+00  0.00000000E+00
  0.00000000E+00  0.00000000E+00  0.00000000E+00
  0.00000000E+00  0.00000000E+00  0.00000000E+00
  0.00000000E+00  0.00000000E+00  0.00000000E+00
  0.00000000E+00  0.00000000E+00  0.00000000E+00
  0.00000000E+00  0.00000000E+00  0.00000000E+00
  0.00000000E+00  0.00000000E+00  0.00000000E+00
  0.00000000E+00  0.00000000E+00  0.00000000E+00
  0.00000000E+00  0.00000000E+00  0.00000000E+00
  0.00000000E+00  0.00000000E+00  0.00000000E+00
  0.00000000E+00  0.00000000E+00  0.00000000E+00
  0.00000000E+00  0.00000000E+00  0.00000000E+00
  0.00000000E+00  0.00000000E+00  0.00000000E+00
  0.00000000E+00  0.00000000E+00  0.00000000E+00
  0.00000000E+00  0.00000000E+00  0.00000000E+00
  0.00000000E+00  0.00000000E+00  0.00000000E+00
  0.00000000E+00  0.00000000E+00  0.00000000E+00
  0.00000000E+00  0.00000000E+00  0.00000000E+00
  0.00000000E+00  0.00000000E+00  0.00000000E+00
  0.00000000E+00  0.00000000E+00  0.00000000E+00
  0.00000000E+00  0.00000000E+00  0.00000000E+00
  0.00000000E+00  0.00000000E+00  0.00000000E+00
  0.00000000E+00  0.00000000E+00  0.00000000E+00
  0.00000000E+00  0.00000000E+00  0.00000000E+00
  0.00000000E+00  0.00000000E+00  0.00000000E+00
  0.00000000E+00  0.00000000E+00  0.00000000E+00
  0.00000000E+00  0.00000000E+00  0.00000000E+00
  0.00000000E+00  0.00000000E+00  0.00000000E+00
  0.00000000E+00  0.00000000E+00  0.00000000E+00
  0.00000000E+00  0.00000000E+00  0.00000000E+00
  0.00000000E+00  0.00000000E+00  0.00000000E+00
  0.00000000E+00  0.00000000E+00  0.00000000E+00
  0.00000000E+00  0.00000000E+00  0.00000000E+00
  0.00000000E+00  0.00000000E+00  0.00000000E+00
  0.00000000E+00  0.00000000E+00  0.00000000E+00
  0.00000000E+00  0.00000000E+00  0.00000000E+00
  0.00000000E+00  0.00000000E+00  0.00000000E+00
  0.00000000E+00  0.00000000E+00  0.00000000E+00
  0.00000000E+00  0.00000000E+00  0.00000000E+00
  0.00000000E+00  0.00000000E+00  0.00000000E+00
  0.00000000E+00  0.00000000E+00  0.00000000E+00
  0.00000000E+00  0.00000000E+00  0.00000000E+00
  0.00000000E+00  0.00000000E+00  0.00000000E+00
  0.00000000E+00  0.00000000E+00  0.00000000E+00
  0.00000000E+00  0.00000000E+00  0.00000000E+00
  0.00000000E+00  0.00000000E+00  0.00000000E+00
  0.00000000E+00  0.00000000E+00  0.00000000E+00
  0.00000000E+00  0.00000000E+00  0.00000000E+00
  0.00000000E+00  0.00000000E+00  0.00000000E+00
  0.00000000E+00  0.00000000E+00  0.00000000E+00
  0.00000000E+00  0.00000000E+00  0.00000000E+00
  0.00000000E+00  0.00000000E+00  0.00000000E+00
  0.00000000E+00  0.00000000E+00  0.00000000E+00
  0.00000000E+00  0.00000000E+00  0.00000000E+00
  0.00000000E+00  0.00000000E+00  0.00000000E+00
  0.00000000E+00  0.00000000E+00  0.00000000E+00
  0.00000000E+00  0.00000000E+00  0.00000000E+00
  0.00000000E+00  0.00000000E+00  0.00000000E+00
  0.00000000E+00  0.00000000E+00  0.00000000E+00
  0.00000000E+00  0.00000000E+00  0.00000000E+00
  0.00000000E+00  0.00000000E+00  0.00000000E+00
  0.00000000E+00  0.00000000E+00  0.00000000E+00
  0.00000000E+00  0.00000000E+00  0.00000000E+00
  0.00000000E+00  0.00000000E+00  0.00000000E+00
  0.00000000E+00  0.00000000E+00  0.00000000E+00
  0.00000000E+00  0.00000000E+00  0.00000000E+00
  0.00000000E+00  0.00000000E+00  0.00000000E+00
  0.00000000E+00  0.00000000E+00  0.00000000E+00
  0.00000000E+00  0.00000000E+00  0.00000000E+00
  0.00000000E+00  0.00000000E+00  0.00000000E+00
  0.00000000E+00  0.00000000E+00  0.00000000E+00
  0.00000000E+00  0.00000000E+00  0.00000000E+00
  0.00000000E+00  0.00000000E+00  0.00000000E+00
  0.00000000E+00  0.00000000E+00  0.00000000E+00
  0.00000000E+00  0.00000000E+00  0.00000000E+00
  0.00000000E+00  0.00000000E+00  0.00000000E+00
  0.00000000E+00  0.00000000E+00  0.00000000E+00
  0.00000000E+00  0.00000000E+00  0.00000000E+00
  0.00000000E+00  0.00000000E+00  0.00000000E+00
  0.00000000E+00  0.00000000E+00  0.00000000E+00
  0.00000000E+00  0.00000000E+00  0.00000000E+00
  0.00000000E+00  0.00000000E+00  0.00000000E+00
  0.00000000E+00  0.00000000E+00  0.00000000E+00
  0.00000000E+00  0.00000000E+00  0.00000000E+00
  0.00000000E+00  0.00000000E+00  0.00000000E+00
  0.00000000E+00  0.00000000E+00  0.00000000E+00
  0.00000000E+00  0.00000000E+00  0.00000000E+00
  0.00000000E+00  0.00000000E+00  0.00000000E+00
  0.00000000E+00  0.00000000E+00  0.00000000E+00
  0.00000000E+00  0.00000000E+00  0.00000000E+00
  0.00000000E+00  0.00000000E+00  0.00000000E+00
  0.00000000E+00  0.00000000E+00  0.00000000E+00
  0.00000000E+00  0.00000000E+00  0.00000000E+00
  0.00000000E+00  0.00000000E+00  0.00000000E+00
  0.00000000E+00  0.00000000E+00  0.00000000E+00
  0.00000000E+00  0.00000000E+00  0.00000000E+00
  0.00000000E+00  0.00000000E+00  0.00000000E+00
  0.00000000E+00  0.00000000E+00  0.00000000E+00
  0.00000000E+00  0.00000000E+00  0.00000000E+00
  0.00000000E+00  0.00000000E+00  0.00000000E+00
  0.00000000E+00  0.00000000E+00  0.00000000E+00
  0.00000000E+00  0.00000000E+00  0.00000000E+00
  0.00000000E+00  0.00000000E+00  0.00000000E+00
  0.00000000E+00  0.00000000E+00  0.00000000E+00
  0.00000000E+00  0.00000000E+00  0.00000000E+00
  0.00000000E+00  0.00000000E+00  0.00000000E+00
  0.00000000E+00  0.00000000E+00  0.00000000E+00
  0.00000000E+00  0.00000000E+00  0.00000000E+00
  0.00000000E+00  0.00000000E+00  0.00000000E+00
  0.00000000E+00  0.00000000E+00  0.00000000E+00
  0.00000000E+00  0.00000000E+00  0.00000000E+00
  0.00000000E+00  0.00000000E+00  0.00000000E+00
  0.00000000E+00  0.00000000E+00  0.00000000E+00
  0.00000000E+00  0.00000000E+00  0.00000000E+00
  0.00000000E+00  0.00000000E+00  0.00000000E+00
  0.00000000E+00  0.00000000E+00  0.00000000E+00
  0.00000000E+00  0.00000000E+00  0.00000000E+00
  0.00000000E+00  0.00000000E+00  0.00000000E+00
  0.00000000E+00  0.00000000E+00  0.00000000E+00
  0.00000000E+00  0.00000000E+00  0.00000000E+00
  0.00000000E+00  0.00000000E+00  0.00000000E+00
  0.00000000E+00  0.00000000E+00  0.00000000E+00
  0.00000000E+00  0.00000000E+00  0.00000000E+00
  0.00000000E+00  0.00000000E+00  0.00000000E+00
  0.00000000E+00  0.00000000E+00  0.00000000E+00
  0.00000000E+00  0.00000000E+00  0.00000000E+00
  0.00000000E+00  0.00000000E+00  0.00000000E+00
  0.00000000E+00  0.00000000E+00  0.00000000E+00
  0.00000000E+00  0.00000000E+00  0.00000000E+00
  0.00000000E+00  0.00000000E+00  0.00000000E+00
  0.00000000E+00  0.00000000E+00  0.00000000E+00
  0.00000000E+00  0.00000000E+00  0.00000000E+00
  0.00000000E+00  0.00000000E+00  0.00000000E+00
  0.00000000E+00  0.00000000E+00  0.00000000E+00
  0.00000000E+00  0.00000000E+00  0.00000000E+00
  0.00000000E+00  0.00000000E+00  0.00000000E+00
  0.00000000E+00  0.00000000E+00  0.00000000E+00
  0.00000000E+00  0.00000000E+00  0.00000000E+00
  0.00000000E+00  0.00000000E+00  0.00000000E+00
  0.00000000E+00  0.00000000E+00  0.00000000E+00
  0.00000000E+00  0.00000000E+00  0.00000000E+00
  0.00000000E+00  0.00000000E+00  0.00000000E+00
  0.00000000E+00  0.00000000E+00  0.00000000E+00
  0.00000000E+00  0.00000000E+00  0.00000000E+00
  0.00000000E+00  0.00000000E+00  0.00000000E+00
  0.00000000E+00  0.00000000E+00  0.00000000E+00
  0.00000000E+00  0.00000000E+00  0.00000000E+00
  0.00000000E+00  0.00000000E+00  0.00000000E+00
  0.00000000E+00  0.00000000E+00  0.00000000E+00
  0.00000000E+00  0.00000000E+00  0.00000000E+00
  0.00000000E+00  0.00000000E+00  0.00000000E+00
  0.00000000E+00  0.00000000E+00  0.00000000E+00
  0.00000000E+00  0.00000000E+00  0.00000000E+00
  0.00000000E+00  0.00000000E+00  0.00000000E+00
  0.00000000E+00  0.00000000E+00  0.00000000E+00
  0.00000000E+00  0.00000000E+00  0.00000000E+00
  0.00000000E+00  0.00000000E+00  0.00000000E+00
  0.00000000E+00  0.00000000E+00  0.00000000E+00
  0.00000000E+00  0.00000000E+00  0.00000000E+00
  0.00000000E+00  0.00000000E+00  0.00000000E+00
  0.00000000E+00  0.00000000E+00  0.00000000E+00
  0.00000000E+00  0.00000000E+00  0.00000000E+00
  0.00000000E+00  0.00000000E+00  0.00000000E+00
  0.00000000E+00  0.00000000E+00  0.00000000E+00
  0.00000000E+00  0.00000000E+00  0.00000000E+00
  0.00000000E+00  0.00000000E+00  0.00000000E+00
  0.00000000E+00  0.00000000E+00  0.00000000E+00
  0.00000000E+00  0.00000000E+00  0.00000000E+00
  0.00000000E+00  0.00000000E+00  0.00000000E+00
  0.00000000E+00  0.00000000E+00  0.00000000E+00
  0.00000000E+00  0.00000000E+00  0.00000000E+00
  0.00000000E+00  0.00000000E+00  0.00000000E+00
  0.00000000E+00  0.00000000E+00  0.00000000E+00
  0.00000000E+00  0.00000000E+00  0.00000000E+00
  0.00000000E+00  0.00000000E+00  0.00000000E+00
  0.00000000E+00  0.00000000E+00  0.00000000E+00
  0.00000000E+00  0.00000000E+00  0.00000000E+00
  0.00000000E+00  0.00000000E+00  0.00000000E+00
  0.00000000E+00  0.00000000E+00  0.00000000E+00
  0.00000000E+00  0.00000000E+00  0.00000000E+00
  0.00000000E+00  0.00000000E+00  0.00000000E+00
  0.00000000E+00  0.00000000E+00  0.00000000E+00
  0.00000000E+00  0.00000000E+00  0.00000000E+00
  0.00000000E+00  0.00000000E+00  0.00000000E+00
  0.00000000E+00  0.00000000E+00  0.00000000E+00
  0.00000000E+00  0.00000000E+00  0.00000000E+00
  0.00000000E+00  0.00000000E+00  0.00000000E+00
  0.00000000E+00  0.00000000E+00  0.00000000E+00
  0.00000000E+00  0.00000000E+00  0.00000000E+00
  0.00000000E+00  0.00000000E+00  0.00000000E+00
  0.00000000E+00  0.00000000E+00  0.00000000E+00
  0.00000000E+00  0.00000000E+00  0.00000000E+00
  0.00000000E+00  0.00000000E+00  0.00000000E+00
  0.00000000E+00  0.00000000E+00  0.00000000E+00
  0.00000000E+00  0.00000000E+00  0.00000000E+00
  0.00000000E+00  0.00000000E+00  0.00000000E+00
  0.00000000E+00  0.00000000E+00  0.00000000E+00
  0.00000000E+00  0.00000000E+00  0.00000000E+00
  0.00000000E+00  0.00000000E+00  0.00000000E+00
  0.00000000E+00  0.00000000E+00  0.00000000E+00
  0.00000000E+00  0.00000000E+00  0.00000000E+00
  0.00000000E+00  0.00000000E+00  0.00000000E+00
  0.00000000E+00  0.00000000E+00  0.00000000E+00
  0.00000000E+00  0.00000000E+00  0.00000000E+00
  0.00000000E+00  0.00000000E+00  0.00000000E+00
  0.00000000E+00  0.00000000E+00  0.00000000E+00
