Ni  O                                   
    1.000000000000000     
    10.5415000915999997    0.0000000000000000    0.0000000000000000
     5.2707500457999998    9.1292068732999994    0.0000000000000000
     0.0000000000000000    0.0000000000000000   28.5415000916000032
   Ni   O 
   125   126
Direct
  0.0017306802674628  0.0017306802674628 -0.1256981052373062
  0.0001621150888207  0.0001621150888207 -0.0016767596439897
 -0.0049938571665276 -0.0049938571665276  0.1557029097852003
  0.0046639659943583  0.0046639659943583  0.2718228385287978
 -0.0007111951614498 -0.0007111951614498  0.3733611228189948
 -0.0026986805919371  0.2003309992373383 -0.0958683117050596
 -0.0015039960122315  0.2008491187197632  0.0084770295013308
 -0.0121069394200721  0.1910453494127636  0.1123835816039403
  0.0016837425082484  0.2028332264779321  0.2428855642127885
 -0.0021044298004960  0.2256465167271668  0.3690290134099011
  0.0022220994396871  0.3992194502065100 -0.1142320036062354
  0.0001370084699430  0.4024021244158290  0.0030674760199631
  0.0042957502275045  0.3964968732189331  0.1204951311467517
  0.0094201407074410  0.4030681765601091  0.2407363435834149
  0.0165039393280414  0.4017551632999151  0.4169108854551629
 -0.0008266074235686  0.6001086247956560 -0.1192689459626271
 -0.0075263420545696  0.6119546725566130  0.0203489086581045
  0.0047082933618444  0.6038135073735478  0.1554125043998389
  0.0275842940414956  0.5902672714092227  0.2694995537797839
  0.0029790623020908  0.6046903533218064  0.4020822725954704
 -0.0100070803240397  0.8087817452673440 -0.1098175083103319
  0.0277115280862661  0.7759018691326051 -0.0150118529047463
 -0.0078328223969464  0.8024002464288822  0.0818899077312878
  0.0293686187204010  0.7680841012080323  0.2410892457057515
 -0.0005852397982010  0.8011274965571480  0.4089916873747244
  0.2003309992373383 -0.0026986805919371 -0.0958683117050596
  0.2008491187197632 -0.0015039960122315  0.0084770295013308
  0.1910453494127636 -0.0121069394200721  0.1123835816039403
  0.2028332264779321  0.0016837425082484  0.2428855642127885
  0.2256465167271668 -0.0021044298004960  0.3690290134099011
  0.2010739609557575  0.2010739609557575 -0.1173424758833299
  0.2031961245449497  0.2031961245449497 -0.0018685626455003
  0.1989312900989769  0.1989312900989769  0.1314499716260642
  0.2093036006277850  0.2093036006277850  0.2354254651640716
  0.2065881407012668  0.2065881407012668  0.3881998646315011
  0.2012676720527054  0.4030901423787032 -0.0933650097442049
  0.2040034878704611  0.4000502443651842  0.0179649603520070
  0.1997761998015911  0.4050464557385222  0.1358183994676407
  0.2070385532398344  0.3988389676240766  0.2896580022190219
  0.2215135005865817  0.4083558801924947  0.4042388246919952
  0.2020142349894290  0.5975247319167052 -0.1189892261278325
  0.2224333033874592  0.5854253855338373 -0.0298376553241888
  0.1967803451320921  0.6037613582585518  0.0866020732006156
  0.1744838096811884  0.6331589749122831  0.1942928430969889
  0.2294721162671532  0.5794715675359985  0.3705196059359943
  0.2008273840369264  0.8006209778185870 -0.1178759724598106
  0.1919302813062805  0.8034631001371997  0.0208726833438008
  0.1970796214870229  0.8070480892598708  0.1516165282693949
  0.1942451302114519  0.8001879560190843  0.2797251461176422
  0.1995645513852320  0.8028924753030678  0.4021615378225077
  0.3992194502065100  0.0022220994396871 -0.1142320036062354
  0.4024021244158290  0.0001370084699430  0.0030674760199631
  0.3964968732189331  0.0042957502275045  0.1204951311467517
  0.4030681765601091  0.0094201407074410  0.2407363435834149
  0.4017551632999151  0.0165039393280414  0.4169108854551629
  0.4030901423787032  0.2012676720527054 -0.0933650097442049
  0.4000502443651842  0.2040034878704611  0.0179649603520070
  0.4050464557385222  0.1997761998015911  0.1358183994676407
  0.3988389676240766  0.2070385532398344  0.2896580022190219
  0.4083558801924947  0.2215135005865818  0.4042388246919952
  0.3993147728044480  0.3993147728044480 -0.1512364917791376
  0.3995309099036255  0.3995309099036255 -0.0078027366471205
  0.3981513194966881  0.3981513194966881  0.0863447275427415
  0.3981329701414780  0.3981329701414780  0.1945327624259328
  0.4106885256547434  0.4106885256547434  0.3063989889630541
  0.4006027115842281  0.5945650938297772 -0.0950947308870782
  0.3874446322984249  0.6055951164702581  0.0137896778286195
  0.3909931647877490  0.5985108160886300  0.1290905031342947
  0.3880839371139476  0.5941490930237728  0.2692414507829862
  0.3911951488112648  0.5811127466572289  0.4238703644460834
  0.4028480686365542  0.7964615306047161 -0.1110318908054707
  0.4016301972448376  0.7936506954010121  0.0025574411577020
  0.3995614939135017  0.7971168478046242  0.1200826430653529
  0.3942552714323764  0.7798947656054452  0.2274460430766738
  0.3943297619526378  0.8104646234894017  0.4215085119831695
  0.6001086247956561 -0.0008266074235686 -0.1192689459626271
  0.6119546725566130 -0.0075263420545696  0.0203489086581045
  0.6038135073735478  0.0047082933618444  0.1554125043998389
  0.5902672714092229  0.0275842940414955  0.2694995537797839
  0.6046903533218064  0.0029790623020908  0.4020822725954704
  0.5975247319167052  0.2020142349894290 -0.1189892261278325
  0.5854253855338373  0.2224333033874592 -0.0298376553241888
  0.6037613582585518  0.1967803451320921  0.0866020732006156
  0.6331589749122832  0.1744838096811884  0.1942928430969889
  0.5794715675359985  0.2294721162671532  0.3705196059359943
  0.5945650938297772  0.4006027115842281 -0.0950947308870782
  0.6055951164702581  0.3874446322984249  0.0137896778286195
  0.5985108160886300  0.3909931647877490  0.1290905031342947
  0.5941490930237728  0.3880839371139474  0.2692414507829862
  0.5811127466572289  0.3911951488112650  0.4238703644460834
  0.5994262343458352  0.5994262343458352 -0.1221827271827237
  0.5975562129531635  0.5975562129531635  0.0028639156577820
  0.6040979545695663  0.6040979545695664  0.1291322926353582
  0.5984429978262391  0.5984429978262391  0.2569471952179961
  0.5847046056207313  0.5847046056207313  0.3759778246289853
  0.6090734258573729  0.7952016718844831 -0.0968841992556863
  0.5955776951982749  0.8044753192641592  0.0160250151263497
  0.6175119335563835  0.8021506677690484  0.1246609110880842
  0.5964353575759398  0.7992912437507269  0.2393397238120889
  0.5739662267184028  0.8182715518011558  0.3879537990835206
  0.8087817452673440 -0.0100070803240397 -0.1098175083103319
  0.7759018691326051  0.0277115280862662 -0.0150118529047463
  0.8024002464288822 -0.0078328223969464  0.0818899077312878
  0.7680841012080323  0.0293686187204010  0.2410892457057515
  0.8011274965571480 -0.0005852397982010  0.4089916873747244
  0.8006209778185870  0.2008273840369264 -0.1178759724598106
  0.8034631001371997  0.1919302813062805  0.0208726833438008
  0.8070480892598708  0.1970796214870229  0.1516165282693949
  0.8001879560190842  0.1942451302114519  0.2797251461176422
  0.8028924753030678  0.1995645513852320  0.4021615378225077
  0.7964615306047161  0.4028480686365542 -0.1110318908054707
  0.7936506954010121  0.4016301972448376  0.0025574411577020
  0.7971168478046242  0.3995614939135017  0.1200826430653529
  0.7798947656054452  0.3942552714323764  0.2274460430766738
  0.8104646234894017  0.3943297619526378  0.4215085119831695
  0.7952016718844831  0.6090734258573729 -0.0968841992556863
  0.8044753192641592  0.5955776951982749  0.0160250151263497
  0.8021506677690485  0.6175119335563835  0.1246609110880842
  0.7992912437507269  0.5964353575759398  0.2393397238120889
  0.8182715518011558  0.5739662267184028  0.3879537990835206
  0.7974304027391934  0.7974304027391934 -0.1313089780284603
  0.7997536956275695  0.7997536956275695 -0.0069273422175202
  0.8012245809880836  0.8012245809880836  0.1597890239308178
  0.7937444534698246  0.7937444534698246  0.2652682563489341
  0.7983558165419666  0.7983558165419666  0.3702110855730736
  0.0989888864387816  0.0989888864387816 -0.0464901699233993
  0.1033723451611441  0.1033723451611441  0.0528581713832343
  0.0828388765623179  0.0828388765623179  0.1610031590847668
  0.1091293298283573  0.1091293298283573  0.3268141619553934
  0.0573028810780013  0.0573028810780013  0.4635198542158676
  0.0969265581834510  0.3054919623750383 -0.0475635870581057
  0.1051248048001368  0.2981907378929300  0.0721450212630906
  0.1033088837562634  0.2942715981694781  0.1811475242801500
  0.1216673898790358  0.3042312765463587  0.2977277350496561
  0.0534705428360425  0.2948544674214506  0.4655216811071446
  0.0986389909709262  0.5089619373932114 -0.0266122925018370
  0.0946624828503256  0.5049987295733063  0.0809358305361596
  0.1174027866289351  0.5006219380741810  0.2073197278953268
  0.1062028061264588  0.5136138863779717  0.3528257602892239
  0.1581582223112356  0.5054989087612201  0.5325290563709570
  0.0905391490626063  0.7064289321020368 -0.0658947565473764
  0.1114712405147665  0.6827761847803197  0.0306941925300574
  0.0854606412454909  0.7141097547528517  0.1400854964046251
  0.0721955404035258  0.7455372558186542  0.3550061170338817
  0.0733098624000320  0.7385473373122275  0.5293273740624349
  0.1053395711106444  0.8957169805955085 -0.0484358741233082
  0.0962313847965550  0.8942411078597098  0.0869277166487443
  0.1011684447602298  0.8627037703068157  0.2195199304036475
  0.1231234732448837  0.8852403532016287  0.3320068141561953
  0.0989080251320360  0.9168242463884559  0.4571674832773950
  0.3054919623750383  0.0969265581834510 -0.0475635870581057
  0.2981907378929300  0.1051248048001368  0.0721450212630906
  0.2942715981694782  0.1033088837562634  0.1811475242801500
  0.3042312765463587  0.1216673898790358  0.2977277350496561
  0.2948544674214506  0.0534705428360425  0.4655216811071446
  0.3010746750060347  0.3010746750060347 -0.0426340814667763
  0.2914678008871912  0.2914678008871912  0.0645201898768288
  0.3061162105983241  0.3061162105983241  0.2113792474588214
  0.3144491002789115  0.3144491002789115  0.3459064735053187
  0.3346726647954552  0.3346726647954552  0.4520450152454267
  0.3244558380766700  0.4754140764150152 -0.0764165543429291
  0.2920510014009575  0.5073808064405221  0.0416985831168272
  0.2816491196427299  0.5090686561542241  0.1412908499121754
  0.2753241736570449  0.5136679579417488  0.2403273126954619
  0.1875040512084183  0.6057425492612073  0.5174181869920228
  0.2972382616217036  0.7062838077552079 -0.0483865588395722
  0.3021633404545094  0.7002005812035397  0.0668397519471204
  0.3177268959771154  0.6662483540137394  0.1875263807916054
  0.3061380658871667  0.6678481984215771  0.3210488851820747
  0.2762319602990901  0.6936257159014504  0.4661270364953706
  0.2971192721312522  0.9052046479733411 -0.0389456772883812
  0.3041617394958009  0.8979204181038474  0.0687852601916101
  0.2939990123099369  0.8988213250800448  0.1843618161757529
  0.3562190616683079  0.8811403326436072  0.3328097833739976
  0.3154546410334084  0.9272831437960419  0.4723407622302890
  0.5089619373932114  0.0986389909709262 -0.0266122925018370
  0.5049987295733063  0.0946624828503256  0.0809358305361596
  0.5006219380741810  0.1174027866289351  0.2073197278953268
  0.5136138863779717  0.1062028061264588  0.3528257602892239
  0.5054989087612201  0.1581582223112356  0.5325290563709570
  0.4754140764150152  0.3244558380766700 -0.0764165543429291
  0.5073808064405221  0.2920510014009575  0.0416985831168272
  0.5090686561542241  0.2816491196427299  0.1412908499121754
  0.5136679579417488  0.2753241736570449  0.2403273126954619
  0.6057425492612073  0.1875040512084184  0.5174181869920228
  0.4945414730199149  0.4945414730199149 -0.0279422393235756
  0.5059543778178563  0.5059543778178563  0.0837090481392769
  0.4915910202569130  0.4915910202569130  0.2199642707518480
  0.4682524947500614  0.4682524947500614  0.3632223191697303
  0.4466333260810403  0.4466333260810401  0.5319612031595919
  0.5021341729405270  0.7005323587448867 -0.0470631840079026
  0.5046752929604877  0.6988768027427433  0.0643512476077249
  0.5019549865568150  0.6993735328624603  0.1762351887094691
  0.4974611524181128  0.6854841885265285  0.3014581416560319
  0.4946360038754706  0.6607410565398500  0.4588714930779654
  0.4906543060919710  0.9089820914661894 -0.0591026384849108
  0.4921400321434127  0.9017979572890703  0.0574819020718923
  0.5017431292229672  0.9205435898125796  0.1695385223370217
  0.4661832106409604  0.9079182316951336  0.3179796984958809
  0.5820244102601082  0.8780492648905807  0.4635092841733560
  0.7064289321020368  0.0905391490626063 -0.0658947565473764
  0.6827761847803197  0.1114712405147665  0.0306941925300574
  0.7141097547528517  0.0854606412454909  0.1400854964046251
  0.7455372558186542  0.0721955404035258  0.3550061170338817
  0.7385473373122275  0.0733098624000320  0.5293273740624349
  0.7062838077552079  0.2972382616217036 -0.0483865588395722
  0.7002005812035397  0.3021633404545094  0.0668397519471204
  0.6662483540137394  0.3177268959771154  0.1875263807916054
  0.6678481984215771  0.3061380658871667  0.3210488851820747
  0.6936257159014504  0.2762319602990901  0.4661270364953706
  0.7005323587448867  0.5021341729405270 -0.0470631840079026
  0.6988768027427433  0.5046752929604877  0.0643512476077249
  0.6993735328624603  0.5019549865568150  0.1762351887094691
  0.6854841885265285  0.4974611524181128  0.3014581416560319
  0.6607410565398500  0.4946360038754706  0.4588714930779654
  0.7034132227796288  0.7034132227796288 -0.0282250423476404
  0.6979671834967031  0.6979671834967031  0.0701855958407330
  0.7069718091209505  0.7069718091209505  0.1858327480377309
  0.6918004748125995  0.6918004748125995  0.3493506788005921
  0.6922161614432252  0.6922161614432252  0.4584636625209906
  0.6939148781680740  0.8984436306987843 -0.0605157537515082
  0.7066569997471709  0.8922909899062367  0.0674666334991300
  0.7153651653067120  0.9248447072645168  0.2123586486572630
  0.6826594993017088  0.8936693816336303  0.3105387284707780
  0.6329990164677149  0.9744893018277841  0.4610491413019848
  0.8957169805955015  0.1053395711106444 -0.0484358741233082
  0.8942411078597027  0.0962313847965550  0.0869277166487443
  0.8627037703068086  0.1011684447602298  0.2195199304036475
  0.8852403532016216  0.1231234732448837  0.3320068141561953
  0.9168242463884488  0.0989080251320360  0.4571674832773950
  0.9052046479733411  0.2971192721312522 -0.0389456772883812
  0.8979204181038474  0.3041617394958009  0.0687852601916101
  0.8988213250800448  0.2939990123099369  0.1843618161757529
  0.8811403326436072  0.3562190616683079  0.3328097833739976
  0.9272831437960419  0.3154546410334083  0.4723407622302890
  0.9089820914661894  0.4906543060919710 -0.0591026384849108
  0.9017979572890703  0.4921400321434127  0.0574819020718923
  0.9205435898125796  0.5017431292229672  0.1695385223370217
  0.9079182316951336  0.4661832106409604  0.3179796984958809
  0.8780492648905807  0.5820244102601082  0.4635092841733560
  0.8984436306987843  0.6939148781680740 -0.0605157537515082
  0.8922909899062367  0.7066569997471709  0.0674666334991300
  0.9248447072645168  0.7153651653067120  0.2123586486572630
  0.8936693816336303  0.6826594993017087  0.3105387284707780
  0.9744893018277841  0.6329990164677149  0.4610491413019848
  0.8947417731069445  0.8947417731069516 -0.0487525392250066
  0.9057474609940491  0.9057474609940562  0.0316928924534673
  0.9013884397801476  0.9013884397801547  0.1312123435483150
  0.9107604315119451  0.9107604315119522  0.2921468801739138
  0.8746470744348291  0.8746470744348362  0.4497840143691004
  0.3961955844123114  0.3961955844123114  0.5723666122019740
 
  0.00000000E+00  0.00000000E+00  0.00000000E+00
  0.00000000E+00  0.00000000E+00  0.00000000E+00
  0.00000000E+00  0.00000000E+00  0.00000000E+00
  0.00000000E+00  0.00000000E+00  0.00000000E+00
  0.00000000E+00  0.00000000E+00  0.00000000E+00
  0.00000000E+00  0.00000000E+00  0.00000000E+00
  0.00000000E+00  0.00000000E+00  0.00000000E+00
  0.00000000E+00  0.00000000E+00  0.00000000E+00
  0.00000000E+00  0.00000000E+00  0.00000000E+00
  0.00000000E+00  0.00000000E+00  0.00000000E+00
  0.00000000E+00  0.00000000E+00  0.00000000E+00
  0.00000000E+00  0.00000000E+00  0.00000000E+00
  0.00000000E+00  0.00000000E+00  0.00000000E+00
  0.00000000E+00  0.00000000E+00  0.00000000E+00
  0.00000000E+00  0.00000000E+00  0.00000000E+00
  0.00000000E+00  0.00000000E+00  0.00000000E+00
  0.00000000E+00  0.00000000E+00  0.00000000E+00
  0.00000000E+00  0.00000000E+00  0.00000000E+00
  0.00000000E+00  0.00000000E+00  0.00000000E+00
  0.00000000E+00  0.00000000E+00  0.00000000E+00
  0.00000000E+00  0.00000000E+00  0.00000000E+00
  0.00000000E+00  0.00000000E+00  0.00000000E+00
  0.00000000E+00  0.00000000E+00  0.00000000E+00
  0.00000000E+00  0.00000000E+00  0.00000000E+00
  0.00000000E+00  0.00000000E+00  0.00000000E+00
  0.00000000E+00  0.00000000E+00  0.00000000E+00
  0.00000000E+00  0.00000000E+00  0.00000000E+00
  0.00000000E+00  0.00000000E+00  0.00000000E+00
  0.00000000E+00  0.00000000E+00  0.00000000E+00
  0.00000000E+00  0.00000000E+00  0.00000000E+00
  0.00000000E+00  0.00000000E+00  0.00000000E+00
  0.00000000E+00  0.00000000E+00  0.00000000E+00
  0.00000000E+00  0.00000000E+00  0.00000000E+00
  0.00000000E+00  0.00000000E+00  0.00000000E+00
  0.00000000E+00  0.00000000E+00  0.00000000E+00
  0.00000000E+00  0.00000000E+00  0.00000000E+00
  0.00000000E+00  0.00000000E+00  0.00000000E+00
  0.00000000E+00  0.00000000E+00  0.00000000E+00
  0.00000000E+00  0.00000000E+00  0.00000000E+00
  0.00000000E+00  0.00000000E+00  0.00000000E+00
  0.00000000E+00  0.00000000E+00  0.00000000E+00
  0.00000000E+00  0.00000000E+00  0.00000000E+00
  0.00000000E+00  0.00000000E+00  0.00000000E+00
  0.00000000E+00  0.00000000E+00  0.00000000E+00
  0.00000000E+00  0.00000000E+00  0.00000000E+00
  0.00000000E+00  0.00000000E+00  0.00000000E+00
  0.00000000E+00  0.00000000E+00  0.00000000E+00
  0.00000000E+00  0.00000000E+00  0.00000000E+00
  0.00000000E+00  0.00000000E+00  0.00000000E+00
  0.00000000E+00  0.00000000E+00  0.00000000E+00
  0.00000000E+00  0.00000000E+00  0.00000000E+00
  0.00000000E+00  0.00000000E+00  0.00000000E+00
  0.00000000E+00  0.00000000E+00  0.00000000E+00
  0.00000000E+00  0.00000000E+00  0.00000000E+00
  0.00000000E+00  0.00000000E+00  0.00000000E+00
  0.00000000E+00  0.00000000E+00  0.00000000E+00
  0.00000000E+00  0.00000000E+00  0.00000000E+00
  0.00000000E+00  0.00000000E+00  0.00000000E+00
  0.00000000E+00  0.00000000E+00  0.00000000E+00
  0.00000000E+00  0.00000000E+00  0.00000000E+00
  0.00000000E+00  0.00000000E+00  0.00000000E+00
  0.00000000E+00  0.00000000E+00  0.00000000E+00
  0.00000000E+00  0.00000000E+00  0.00000000E+00
  0.00000000E+00  0.00000000E+00  0.00000000E+00
  0.00000000E+00  0.00000000E+00  0.00000000E+00
  0.00000000E+00  0.00000000E+00  0.00000000E+00
  0.00000000E+00  0.00000000E+00  0.00000000E+00
  0.00000000E+00  0.00000000E+00  0.00000000E+00
  0.00000000E+00  0.00000000E+00  0.00000000E+00
  0.00000000E+00  0.00000000E+00  0.00000000E+00
  0.00000000E+00  0.00000000E+00  0.00000000E+00
  0.00000000E+00  0.00000000E+00  0.00000000E+00
  0.00000000E+00  0.00000000E+00  0.00000000E+00
  0.00000000E+00  0.00000000E+00  0.00000000E+00
  0.00000000E+00  0.00000000E+00  0.00000000E+00
  0.00000000E+00  0.00000000E+00  0.00000000E+00
  0.00000000E+00  0.00000000E+00  0.00000000E+00
  0.00000000E+00  0.00000000E+00  0.00000000E+00
  0.00000000E+00  0.00000000E+00  0.00000000E+00
  0.00000000E+00  0.00000000E+00  0.00000000E+00
  0.00000000E+00  0.00000000E+00  0.00000000E+00
  0.00000000E+00  0.00000000E+00  0.00000000E+00
  0.00000000E+00  0.00000000E+00  0.00000000E+00
  0.00000000E+00  0.00000000E+00  0.00000000E+00
  0.00000000E+00  0.00000000E+00  0.00000000E+00
  0.00000000E+00  0.00000000E+00  0.00000000E+00
  0.00000000E+00  0.00000000E+00  0.00000000E+00
  0.00000000E+00  0.00000000E+00  0.00000000E+00
  0.00000000E+00  0.00000000E+00  0.00000000E+00
  0.00000000E+00  0.00000000E+00  0.00000000E+00
  0.00000000E+00  0.00000000E+00  0.00000000E+00
  0.00000000E+00  0.00000000E+00  0.00000000E+00
  0.00000000E+00  0.00000000E+00  0.00000000E+00
  0.00000000E+00  0.00000000E+00  0.00000000E+00
  0.00000000E+00  0.00000000E+00  0.00000000E+00
  0.00000000E+00  0.00000000E+00  0.00000000E+00
  0.00000000E+00  0.00000000E+00  0.00000000E+00
  0.00000000E+00  0.00000000E+00  0.00000000E+00
  0.00000000E+00  0.00000000E+00  0.00000000E+00
  0.00000000E+00  0.00000000E+00  0.00000000E+00
  0.00000000E+00  0.00000000E+00  0.00000000E+00
  0.00000000E+00  0.00000000E+00  0.00000000E+00
  0.00000000E+00  0.00000000E+00  0.00000000E+00
  0.00000000E+00  0.00000000E+00  0.00000000E+00
  0.00000000E+00  0.00000000E+00  0.00000000E+00
  0.00000000E+00  0.00000000E+00  0.00000000E+00
  0.00000000E+00  0.00000000E+00  0.00000000E+00
  0.00000000E+00  0.00000000E+00  0.00000000E+00
  0.00000000E+00  0.00000000E+00  0.00000000E+00
  0.00000000E+00  0.00000000E+00  0.00000000E+00
  0.00000000E+00  0.00000000E+00  0.00000000E+00
  0.00000000E+00  0.00000000E+00  0.00000000E+00
  0.00000000E+00  0.00000000E+00  0.00000000E+00
  0.00000000E+00  0.00000000E+00  0.00000000E+00
  0.00000000E+00  0.00000000E+00  0.00000000E+00
  0.00000000E+00  0.00000000E+00  0.00000000E+00
  0.00000000E+00  0.00000000E+00  0.00000000E+00
  0.00000000E+00  0.00000000E+00  0.00000000E+00
  0.00000000E+00  0.00000000E+00  0.00000000E+00
  0.00000000E+00  0.00000000E+00  0.00000000E+00
  0.00000000E+00  0.00000000E+00  0.00000000E+00
  0.00000000E+00  0.00000000E+00  0.00000000E+00
  0.00000000E+00  0.00000000E+00  0.00000000E+00
  0.00000000E+00  0.00000000E+00  0.00000000E+00
  0.00000000E+00  0.00000000E+00  0.00000000E+00
  0.00000000E+00  0.00000000E+00  0.00000000E+00
  0.00000000E+00  0.00000000E+00  0.00000000E+00
  0.00000000E+00  0.00000000E+00  0.00000000E+00
  0.00000000E+00  0.00000000E+00  0.00000000E+00
  0.00000000E+00  0.00000000E+00  0.00000000E+00
  0.00000000E+00  0.00000000E+00  0.00000000E+00
  0.00000000E+00  0.00000000E+00  0.00000000E+00
  0.00000000E+00  0.00000000E+00  0.00000000E+00
  0.00000000E+00  0.00000000E+00  0.00000000E+00
  0.00000000E+00  0.00000000E+00  0.00000000E+00
  0.00000000E+00  0.00000000E+00  0.00000000E+00
  0.00000000E+00  0.00000000E+00  0.00000000E+00
  0.00000000E+00  0.00000000E+00  0.00000000E+00
  0.00000000E+00  0.00000000E+00  0.00000000E+00
  0.00000000E+00  0.00000000E+00  0.00000000E+00
  0.00000000E+00  0.00000000E+00  0.00000000E+00
  0.00000000E+00  0.00000000E+00  0.00000000E+00
  0.00000000E+00  0.00000000E+00  0.00000000E+00
  0.00000000E+00  0.00000000E+00  0.00000000E+00
  0.00000000E+00  0.00000000E+00  0.00000000E+00
  0.00000000E+00  0.00000000E+00  0.00000000E+00
  0.00000000E+00  0.00000000E+00  0.00000000E+00
  0.00000000E+00  0.00000000E+00  0.00000000E+00
  0.00000000E+00  0.00000000E+00  0.00000000E+00
  0.00000000E+00  0.00000000E+00  0.00000000E+00
  0.00000000E+00  0.00000000E+00  0.00000000E+00
  0.00000000E+00  0.00000000E+00  0.00000000E+00
  0.00000000E+00  0.00000000E+00  0.00000000E+00
  0.00000000E+00  0.00000000E+00  0.00000000E+00
  0.00000000E+00  0.00000000E+00  0.00000000E+00
  0.00000000E+00  0.00000000E+00  0.00000000E+00
  0.00000000E+00  0.00000000E+00  0.00000000E+00
  0.00000000E+00  0.00000000E+00  0.00000000E+00
  0.00000000E+00  0.00000000E+00  0.00000000E+00
  0.00000000E+00  0.00000000E+00  0.00000000E+00
  0.00000000E+00  0.00000000E+00  0.00000000E+00
  0.00000000E+00  0.00000000E+00  0.00000000E+00
  0.00000000E+00  0.00000000E+00  0.00000000E+00
  0.00000000E+00  0.00000000E+00  0.00000000E+00
  0.00000000E+00  0.00000000E+00  0.00000000E+00
  0.00000000E+00  0.00000000E+00  0.00000000E+00
  0.00000000E+00  0.00000000E+00  0.00000000E+00
  0.00000000E+00  0.00000000E+00  0.00000000E+00
  0.00000000E+00  0.00000000E+00  0.00000000E+00
  0.00000000E+00  0.00000000E+00  0.00000000E+00
  0.00000000E+00  0.00000000E+00  0.00000000E+00
  0.00000000E+00  0.00000000E+00  0.00000000E+00
  0.00000000E+00  0.00000000E+00  0.00000000E+00
  0.00000000E+00  0.00000000E+00  0.00000000E+00
  0.00000000E+00  0.00000000E+00  0.00000000E+00
  0.00000000E+00  0.00000000E+00  0.00000000E+00
  0.00000000E+00  0.00000000E+00  0.00000000E+00
  0.00000000E+00  0.00000000E+00  0.00000000E+00
  0.00000000E+00  0.00000000E+00  0.00000000E+00
  0.00000000E+00  0.00000000E+00  0.00000000E+00
  0.00000000E+00  0.00000000E+00  0.00000000E+00
  0.00000000E+00  0.00000000E+00  0.00000000E+00
  0.00000000E+00  0.00000000E+00  0.00000000E+00
  0.00000000E+00  0.00000000E+00  0.00000000E+00
  0.00000000E+00  0.00000000E+00  0.00000000E+00
  0.00000000E+00  0.00000000E+00  0.00000000E+00
  0.00000000E+00  0.00000000E+00  0.00000000E+00
  0.00000000E+00  0.00000000E+00  0.00000000E+00
  0.00000000E+00  0.00000000E+00  0.00000000E+00
  0.00000000E+00  0.00000000E+00  0.00000000E+00
  0.00000000E+00  0.00000000E+00  0.00000000E+00
  0.00000000E+00  0.00000000E+00  0.00000000E+00
  0.00000000E+00  0.00000000E+00  0.00000000E+00
  0.00000000E+00  0.00000000E+00  0.00000000E+00
  0.00000000E+00  0.00000000E+00  0.00000000E+00
  0.00000000E+00  0.00000000E+00  0.00000000E+00
  0.00000000E+00  0.00000000E+00  0.00000000E+00
  0.00000000E+00  0.00000000E+00  0.00000000E+00
  0.00000000E+00  0.00000000E+00  0.00000000E+00
  0.00000000E+00  0.00000000E+00  0.00000000E+00
  0.00000000E+00  0.00000000E+00  0.00000000E+00
  0.00000000E+00  0.00000000E+00  0.00000000E+00
  0.00000000E+00  0.00000000E+00  0.00000000E+00
  0.00000000E+00  0.00000000E+00  0.00000000E+00
  0.00000000E+00  0.00000000E+00  0.00000000E+00
  0.00000000E+00  0.00000000E+00  0.00000000E+00
  0.00000000E+00  0.00000000E+00  0.00000000E+00
  0.00000000E+00  0.00000000E+00  0.00000000E+00
  0.00000000E+00  0.00000000E+00  0.00000000E+00
  0.00000000E+00  0.00000000E+00  0.00000000E+00
  0.00000000E+00  0.00000000E+00  0.00000000E+00
  0.00000000E+00  0.00000000E+00  0.00000000E+00
  0.00000000E+00  0.00000000E+00  0.00000000E+00
  0.00000000E+00  0.00000000E+00  0.00000000E+00
  0.00000000E+00  0.00000000E+00  0.00000000E+00
  0.00000000E+00  0.00000000E+00  0.00000000E+00
  0.00000000E+00  0.00000000E+00  0.00000000E+00
  0.00000000E+00  0.00000000E+00  0.00000000E+00
  0.00000000E+00  0.00000000E+00  0.00000000E+00
  0.00000000E+00  0.00000000E+00  0.00000000E+00
  0.00000000E+00  0.00000000E+00  0.00000000E+00
  0.00000000E+00  0.00000000E+00  0.00000000E+00
  0.00000000E+00  0.00000000E+00  0.00000000E+00
  0.00000000E+00  0.00000000E+00  0.00000000E+00
  0.00000000E+00  0.00000000E+00  0.00000000E+00
  0.00000000E+00  0.00000000E+00  0.00000000E+00
  0.00000000E+00  0.00000000E+00  0.00000000E+00
  0.00000000E+00  0.00000000E+00  0.00000000E+00
  0.00000000E+00  0.00000000E+00  0.00000000E+00
  0.00000000E+00  0.00000000E+00  0.00000000E+00
  0.00000000E+00  0.00000000E+00  0.00000000E+00
  0.00000000E+00  0.00000000E+00  0.00000000E+00
  0.00000000E+00  0.00000000E+00  0.00000000E+00
  0.00000000E+00  0.00000000E+00  0.00000000E+00
  0.00000000E+00  0.00000000E+00  0.00000000E+00
  0.00000000E+00  0.00000000E+00  0.00000000E+00
  0.00000000E+00  0.00000000E+00  0.00000000E+00
  0.00000000E+00  0.00000000E+00  0.00000000E+00
  0.00000000E+00  0.00000000E+00  0.00000000E+00
  0.00000000E+00  0.00000000E+00  0.00000000E+00
  0.00000000E+00  0.00000000E+00  0.00000000E+00
  0.00000000E+00  0.00000000E+00  0.00000000E+00
  0.00000000E+00  0.00000000E+00  0.00000000E+00
  0.00000000E+00  0.00000000E+00  0.00000000E+00
  0.00000000E+00  0.00000000E+00  0.00000000E+00
  0.00000000E+00  0.00000000E+00  0.00000000E+00
  0.00000000E+00  0.00000000E+00  0.00000000E+00
  0.00000000E+00  0.00000000E+00  0.00000000E+00
  0.00000000E+00  0.00000000E+00  0.00000000E+00
  0.00000000E+00  0.00000000E+00  0.00000000E+00
  0.00000000E+00  0.00000000E+00  0.00000000E+00
