Ni  O                                   
    1.000000000000000     
    10.5415000915999997    0.0000000000000000    0.0000000000000000
     5.2707500457999998    9.1292068732999994    0.0000000000000000
     0.0000000000000000    0.0000000000000000   28.5415000916000032
   Ni   O 
   125   126
Direct
  0.0008827366987406  0.0008827366987406 -0.1975814780275183
  0.0007553767724054  0.0007553767724054  0.0325056566699398
 -0.0322225897618821 -0.0322225897618821  0.1481040119751575
 -0.0080968446913468 -0.0080968446913468  0.2728036087929779
 -0.0114424435686202 -0.0114424435686202  0.4111486869611317
 -0.0142655545675226  0.1847167631939157 -0.1347346609367043
 -0.0123689785725874  0.1954821206853143 -0.0033747581470741
 -0.0062103967306248  0.1968875198431117  0.1283206581073255
 -0.0048257869191854  0.1993303564048788  0.2594797636126767
  0.0050723394125107  0.2020504334211970  0.3794278156985619
  0.0077703580558615  0.4026613277168848 -0.1283565876939319
 -0.0140396039066094  0.4177217836044191 -0.0207349259756766
  0.0144407536159692  0.3777273196287190  0.1561092739713988
 -0.0080424033888618  0.4030433295936914  0.2567601310654591
  0.0080620334920490  0.3867972554001944  0.4141555989276599
  0.0193371505351962  0.6145573672783113 -0.1586112772209324
  0.0924113513089308  0.5113349985731224  0.0290656995139688
  0.0019372270317824  0.5825364555363982  0.1863919809645318
  0.0034955232070030  0.5921333808073694  0.3007811438677391
 -0.0067446626792691  0.6242667462270778  0.4205178286102624
  0.0378694731523648  0.8208323498663589 -0.1367051986964887
  0.0186617081573142  0.7692660596401447 -0.0119821242510741
 -0.0259638211934199  0.7793160758814344  0.1032420394458876
  0.0003163409254304  0.8037054310991395  0.2456638833316543
  0.0111731359447435  0.7672817893345835  0.3676071661716570
  0.1847167631939157 -0.0142655545675226 -0.1347346609367043
  0.1954821206853143 -0.0123689785725874 -0.0033747581470741
  0.1968875198431117 -0.0062103967306247  0.1283206581073255
  0.1993303564048788 -0.0048257869191854  0.2594797636126767
  0.2020504334211970  0.0050723394125107  0.3794278156985619
  0.2178427303909163  0.2178427303909163 -0.1248404933503265
  0.2019066571756431  0.2019066571756431 -0.0220276609691765
  0.1908165674232314  0.1908165674232314  0.0820042850266147
  0.2141456636204723  0.2141456636204723  0.2599310091261596
  0.2116382839393769  0.2116382839393770  0.3672162278562033
  0.1730893435759748  0.4011963273863749 -0.1999392900059928
  0.1828615813999320  0.4220624688752375 -0.0539266191945699
  0.1633316165689778  0.3974869533194090  0.1089765242383974
  0.2068155565166476  0.4083236191918854  0.3088703551111853
  0.1994863317412665  0.4017755862519332  0.4347556027245747
  0.2313952168458350  0.6029198408537388 -0.1238716142512353
  0.2359363257087460  0.5977815724214411 -0.0323197165589772
  0.2042244427202884  0.6121738234489177  0.1071049547763505
  0.1848553827703064  0.6179636146467764  0.2120523380540131
  0.1984106158342652  0.6075768987454819  0.4283545634933143
  0.2059552453123935  0.8013914901048343 -0.1865488597910178
  0.1818689873659479  0.8071584114320824  0.0493481406504065
  0.1936611607298540  0.8081098446154404  0.1634893427411387
  0.1989697650079831  0.8063625302322650  0.2925961861323814
  0.2005059448380919  0.7881155372639770  0.3929967763003274
  0.4026613277168848  0.0077703580558615 -0.1283565876939319
  0.4177217836044191 -0.0140396039066094 -0.0207349259756766
  0.3777273196287190  0.0144407536159692  0.1561092739713988
  0.4030433295936913 -0.0080424033888618  0.2567601310654591
  0.3867972554001944  0.0080620334920490  0.4141555989276599
  0.4011963273863749  0.1730893435759748 -0.1999392900059928
  0.4220624688752376  0.1828615813999319 -0.0539266191945699
  0.3974869533194090  0.1633316165689778  0.1089765242383974
  0.4083236191918854  0.2068155565166476  0.3088703551111853
  0.4017755862519332  0.1994863317412665  0.4347556027245747
  0.3704543231151267  0.3704543231151267 -0.1601498363225440
  0.3984242416521786  0.3984242416521787  0.0049224466412228
  0.4045186590675884  0.4045186590675884  0.1158342121456612
  0.3772550440204258  0.3772550440204258  0.2120665715782034
  0.4043717959355138  0.4043717959355138  0.3222161267727340
  0.3950912475530912  0.5945068780092301 -0.1789176967863740
  0.3940836621467189  0.5908353078805191  0.0359695912173752
  0.4100078773908734  0.6073885092174179  0.1548794354598897
  0.3892248896971989  0.6027714579385159  0.2807713251772258
  0.3946788425921643  0.5899918577696240  0.3961543024340061
  0.3665358084301851  0.7750465176746214 -0.1159908991048245
  0.4060676289291476  0.7957673656558273  0.0048925360799619
  0.4156358437540874  0.7831759403667641  0.1130672294117183
  0.3719955252185544  0.7979111865397054  0.2412012385151789
  0.4081141192264711  0.7955109940705239  0.3909017381531626
  0.6145573672783115  0.0193371505351962 -0.1586112772209324
  0.5113349985731226  0.0924113513089308  0.0290656995139688
  0.5825364555363982  0.0019372270317823  0.1863919809645318
  0.5921333808073695  0.0034955232070030  0.3007811438677391
  0.6242667462270778 -0.0067446626792691  0.4205178286102624
  0.6029198408537388  0.2313952168458350 -0.1238716142512353
  0.5977815724214411  0.2359363257087460 -0.0323197165589772
  0.6121738234489177  0.2042244427202884  0.1071049547763505
  0.6179636146467763  0.1848553827703064  0.2120523380540131
  0.6075768987454819  0.1984106158342652  0.4283545634933143
  0.5945068780092301  0.3950912475530912 -0.1789176967863740
  0.5908353078805191  0.3940836621467189  0.0359695912173752
  0.6073885092174179  0.4100078773908734  0.1548794354598897
  0.6027714579385159  0.3892248896971989  0.2807713251772258
  0.5899918577696240  0.3946788425921643  0.3961543024340061
  0.5743636677128733  0.5743636677128733 -0.1267955224298004
  0.5995942571206013  0.5995942571206013 -0.0070646568919543
  0.6278628558070533  0.6278628558070533  0.1455800398822482
  0.5992906998822604  0.5992906998822604  0.2497380992105351
  0.5950461623403586  0.5950461623403586  0.4276448307306997
  0.5790393813030961  0.8041641371515272 -0.1499732828031426
  0.6056017356311600  0.8147040663110366  0.0175420548503528
  0.5876663285130598  0.8567727864094857  0.1169102897518473
  0.5985488200357548  0.7998255092481464  0.2693677586382163
  0.6119280756506603  0.7999023358968229  0.4026938243795326
  0.8208323498663589  0.0378694731523648 -0.1367051986964887
  0.7692660596401447  0.0186617081573142 -0.0119821242510741
  0.7793160758814345 -0.0259638211934199  0.1032420394458876
  0.8037054310991397  0.0003163409254304  0.2456638833316543
  0.7672817893345836  0.0111731359447436  0.3676071661716570
  0.8013914901048343  0.2059552453123935 -0.1865488597910178
  0.8071584114320824  0.1818689873659480  0.0493481406504065
  0.8081098446154404  0.1936611607298539  0.1634893427411387
  0.8063625302322650  0.1989697650079831  0.2925961861323814
  0.7881155372639770  0.2005059448380919  0.3929967763003274
  0.7750465176746214  0.3665358084301851 -0.1159908991048245
  0.7957673656558273  0.4060676289291476  0.0048925360799619
  0.7831759403667641  0.4156358437540874  0.1130672294117183
  0.7979111865397054  0.3719955252185544  0.2412012385151789
  0.7955109940705239  0.4081141192264711  0.3909017381531626
  0.8041641371515272  0.5790393813030961 -0.1499732828031426
  0.8147040663110366  0.6056017356311600  0.0175420548503528
  0.8567727864094857  0.5876663285130598  0.1169102897518473
  0.7998255092481464  0.5985488200357550  0.2693677586382163
  0.7999023358968229  0.6119280756506603  0.4026938243795326
  0.8072048357653976  0.8072048357653976 -0.1044768912348876
  0.7976533270461044  0.7976533270461044 -0.0081948627008195
  0.8139410575094377  0.8139410575094377  0.1758380147518081
  0.8039562736188594  0.8039562736188594  0.3050143940153750
  0.7997335612372301  0.7997335612372299  0.4585314108362175
  0.1128233705372880  0.1128233705372880 -0.0484395573453957
  0.0920598763488881  0.0920598763488882  0.0743955698103985
  0.0992680124160793  0.0992680124160793  0.1815401451478469
  0.1014777871775825  0.1014777871775825  0.3131489344221269
  0.0819177663886904  0.0819177663886904  0.4560822609302077
  0.0790524414631839  0.3106646011954430 -0.0723070687356467
  0.1026712839351883  0.3394847456551857  0.0319662140789791
  0.1284978126838843  0.3123469577641426  0.2007828429049428
  0.0977055814087207  0.3080258814377251  0.3073256235666020
  0.0586758149556057  0.3057139569412461  0.4746310660492256
  0.0466017151448052  0.5372467159620397 -0.1019429254001741
  0.0498847348173120  0.5687935020012681  0.0962875491537778
  0.1219944386325521  0.4788576909505291  0.2491762557316647
  0.1510989876481673  0.5319222516367902  0.3814358670810569
  0.1402299595289923  0.5055043601238365  0.4910600657556731
  0.1227064005148837  0.7281541963363685 -0.0819005587414303
  0.1372218669322826  0.6594790819992122  0.0292145647167888
  0.0693292228165013  0.7127991782516974  0.1565697484674009
  0.0952753710015555  0.7054895357503104  0.2955144942617599
  0.0857650293202808  0.7686328690018476  0.4787354942816269
  0.0782610699232589  0.9347381381900357 -0.0600977706820788
  0.0930493455412723  0.8785989695450699  0.1061141747166076
  0.1183286477677275  0.8993586748417199  0.2240863450135044
  0.1033932982188885  0.9050540917615942  0.3479817195528926
  0.1115183116907167  0.8708208369744642  0.4663638528981409
  0.3106646011954429  0.0790524414631839 -0.0723070687356467
  0.3394847456551858  0.1026712839351883  0.0319662140789791
  0.3123469577641426  0.1284978126838844  0.2007828429049428
  0.3080258814377251  0.0977055814087207  0.3073256235666020
  0.3057139569412461  0.0586758149556057  0.4746310660492256
  0.3149198419804866  0.3149198419804866 -0.1070597347298125
  0.2933451281029381  0.2933451281029381 -0.0089377013578801
  0.2921882509808403  0.2921882509808403  0.1545626354954177
  0.3115338394777881  0.3115338394777881  0.3631573053733927
  0.2777658241323184  0.2777658241323184  0.4786359312352763
  0.3547490652934244  0.5077894116043795 -0.0752844174766563
  0.2864720648819049  0.4728870711121231  0.0626739444693238
  0.2654918270109047  0.5076113237490104  0.1629542277182286
  0.2954763197338056  0.5110001302664439  0.2611855000434081
  0.2853949331269120  0.4853796211947560  0.5137575001097743
  0.2722626750818682  0.7434752906012467 -0.0104546750477349
  0.3127051557510906  0.6849670255378272  0.0951255853262218
  0.3075233491355102  0.6875429738730628  0.2053528583303275
  0.2930922157038706  0.6726108820595382  0.3349961428036810
  0.3177129544114285  0.6562929896844175  0.4509883235090214
  0.2825804859207761  0.8804015932369696 -0.0659934474292604
  0.2720044502641401  0.9060809270782506  0.0510023949442040
  0.3168411535849037  0.8786574727175445  0.1693366972177289
  0.3326550314017024  0.8828598589254059  0.3369819859266666
  0.2536401966019669  0.9694650153311298  0.4785082268781019
  0.5372467159620397  0.0466017151448052 -0.1019429254001741
  0.5687935020012681  0.0498847348173120  0.0962875491537778
  0.4788576909505290  0.1219944386325521  0.2491762557316647
  0.5319222516367903  0.1510989876481673  0.3814358670810569
  0.5055043601238365  0.1402299595289923  0.4910600657556731
  0.5077894116043795  0.3547490652934243 -0.0752844174766563
  0.4728870711121231  0.2864720648819049  0.0626739444693238
  0.5076113237490104  0.2654918270109047  0.1629542277182286
  0.5110001302664439  0.2954763197338056  0.2611855000434081
  0.4853796211947560  0.2853949331269120  0.5137575001097743
  0.5066549847699011  0.5066549847699011 -0.0115868038281511
  0.5095085369842469  0.5095085369842469  0.1058576016153091
  0.4916304749174985  0.4916304749174985  0.2255788982753907
  0.4917013011873120  0.4917013011873120  0.3480567024580921
  0.5481217388635017  0.5481217388635019  0.4777793415932726
  0.4771329245734582  0.6774988834653326 -0.0716675061721316
  0.4851682579436029  0.7100344601089509  0.0584205966633211
  0.5102805164304128  0.7022973006682670  0.1961450507625343
  0.5003148219947913  0.6912315131586539  0.2998385267679810
  0.4420912237861636  0.7596912875035909  0.4693196726494916
  0.5644627728297879  0.8315277703971635 -0.0459413278931247
  0.4151040306103481  0.9626631283744973  0.0941009099023249
  0.5093443826585879  0.8971302802525480  0.2092605630021560
  0.4773574113000668  0.9148442457317453  0.3648131910957991
  0.5197250507534233  0.8819934319491661  0.4694365861908235
  0.7281541963363685  0.1227064005148837 -0.0819005587414303
  0.6594790819992123  0.1372218669322826  0.0292145647167888
  0.7127991782516974  0.0693292228165013  0.1565697484674009
  0.7054895357503104  0.0952753710015555  0.2955144942617599
  0.7686328690018476  0.0857650293202808  0.4787354942816269
  0.7434752906012467  0.2722626750818682 -0.0104546750477349
  0.6849670255378272  0.3127051557510906  0.0951255853262218
  0.6875429738730628  0.3075233491355102  0.2053528583303275
  0.6726108820595382  0.2930922157038707  0.3349961428036810
  0.6562929896844176  0.3177129544114285  0.4509883235090214
  0.6774988834653326  0.4771329245734582 -0.0716675061721316
  0.7100344601089509  0.4851682579436029  0.0584205966633211
  0.7022973006682671  0.5102805164304128  0.1961450507625343
  0.6912315131586539  0.5003148219947913  0.2998385267679810
  0.7596912875035909  0.4420912237861636  0.4693196726494916
  0.7086116568979460  0.7086116568979460 -0.1049157131282909
  0.6897958217767666  0.6897958217767666  0.0640146601209753
  0.7216196857720049  0.7216196857720049  0.1541140797883906
  0.7116843908060108  0.7116843908060108  0.3159695859162727
  0.7040557547077479  0.7040557547077479  0.4593508808563883
  0.6987091285781342  0.9170677132059534 -0.0541278532950456
  0.7263880429705574  0.8610107195171820  0.0596718614750744
  0.7037224239024871  0.8984121771539971  0.2402455463973206
  0.6746118578242714  0.9180120633747755  0.3559773233388669
  0.6665068820678119  0.9537435577914464  0.4841809326079052
  0.9347381381900286  0.0782610699232589 -0.0600977706820788
  0.8785989695450628  0.0930493455412723  0.1061141747166076
  0.8993586748417128  0.1183286477677275  0.2240863450135044
  0.9050540917615871  0.1033932982188885  0.3479817195528926
  0.8708208369744570  0.1115183116907167  0.4663638528981409
  0.8804015932369696  0.2825804859207761 -0.0659934474292604
  0.9060809270782506  0.2720044502641400  0.0510023949442040
  0.8786574727175445  0.3168411535849037  0.1693366972177289
  0.8828598589254057  0.3326550314017024  0.3369819859266666
  0.9694650153311298  0.2536401966019669  0.4785082268781019
  0.8315277703971635  0.5644627728297879 -0.0459413278931247
  0.9626631283744973  0.4151040306103481  0.0941009099023249
  0.8971302802525480  0.5093443826585879  0.2092605630021560
  0.9148442457317453  0.4773574113000668  0.3648131910957991
  0.8819934319491661  0.5197250507534233  0.4694365861908235
  0.9170677132059534  0.6987091285781342 -0.0541278532950456
  0.8610107195171820  0.7263880429705574  0.0596718614750744
  0.8984121771539971  0.7037224239024871  0.2402455463973206
  0.9180120633747755  0.6746118578242714  0.3559773233388669
  0.9537435577914464  0.6665068820678119  0.4841809326079052
  0.8972540933271800  0.8972540933271871 -0.0525791554881111
  0.9003628859139972  0.9003628859140043  0.0344274907016660
  0.8988513020576817  0.8988513020576888  0.1988235739065862
  0.9043797722623698  0.9043797722623769  0.3214688907460488
  0.8953434197888976  0.8953434197889047  0.4361488554589418
  0.3640029700501392  0.3640029700501392  0.5360921369288604
 
  0.00000000E+00  0.00000000E+00  0.00000000E+00
  0.00000000E+00  0.00000000E+00  0.00000000E+00
  0.00000000E+00  0.00000000E+00  0.00000000E+00
  0.00000000E+00  0.00000000E+00  0.00000000E+00
  0.00000000E+00  0.00000000E+00  0.00000000E+00
  0.00000000E+00  0.00000000E+00  0.00000000E+00
  0.00000000E+00  0.00000000E+00  0.00000000E+00
  0.00000000E+00  0.00000000E+00  0.00000000E+00
  0.00000000E+00  0.00000000E+00  0.00000000E+00
  0.00000000E+00  0.00000000E+00  0.00000000E+00
  0.00000000E+00  0.00000000E+00  0.00000000E+00
  0.00000000E+00  0.00000000E+00  0.00000000E+00
  0.00000000E+00  0.00000000E+00  0.00000000E+00
  0.00000000E+00  0.00000000E+00  0.00000000E+00
  0.00000000E+00  0.00000000E+00  0.00000000E+00
  0.00000000E+00  0.00000000E+00  0.00000000E+00
  0.00000000E+00  0.00000000E+00  0.00000000E+00
  0.00000000E+00  0.00000000E+00  0.00000000E+00
  0.00000000E+00  0.00000000E+00  0.00000000E+00
  0.00000000E+00  0.00000000E+00  0.00000000E+00
  0.00000000E+00  0.00000000E+00  0.00000000E+00
  0.00000000E+00  0.00000000E+00  0.00000000E+00
  0.00000000E+00  0.00000000E+00  0.00000000E+00
  0.00000000E+00  0.00000000E+00  0.00000000E+00
  0.00000000E+00  0.00000000E+00  0.00000000E+00
  0.00000000E+00  0.00000000E+00  0.00000000E+00
  0.00000000E+00  0.00000000E+00  0.00000000E+00
  0.00000000E+00  0.00000000E+00  0.00000000E+00
  0.00000000E+00  0.00000000E+00  0.00000000E+00
  0.00000000E+00  0.00000000E+00  0.00000000E+00
  0.00000000E+00  0.00000000E+00  0.00000000E+00
  0.00000000E+00  0.00000000E+00  0.00000000E+00
  0.00000000E+00  0.00000000E+00  0.00000000E+00
  0.00000000E+00  0.00000000E+00  0.00000000E+00
  0.00000000E+00  0.00000000E+00  0.00000000E+00
  0.00000000E+00  0.00000000E+00  0.00000000E+00
  0.00000000E+00  0.00000000E+00  0.00000000E+00
  0.00000000E+00  0.00000000E+00  0.00000000E+00
  0.00000000E+00  0.00000000E+00  0.00000000E+00
  0.00000000E+00  0.00000000E+00  0.00000000E+00
  0.00000000E+00  0.00000000E+00  0.00000000E+00
  0.00000000E+00  0.00000000E+00  0.00000000E+00
  0.00000000E+00  0.00000000E+00  0.00000000E+00
  0.00000000E+00  0.00000000E+00  0.00000000E+00
  0.00000000E+00  0.00000000E+00  0.00000000E+00
  0.00000000E+00  0.00000000E+00  0.00000000E+00
  0.00000000E+00  0.00000000E+00  0.00000000E+00
  0.00000000E+00  0.00000000E+00  0.00000000E+00
  0.00000000E+00  0.00000000E+00  0.00000000E+00
  0.00000000E+00  0.00000000E+00  0.00000000E+00
  0.00000000E+00  0.00000000E+00  0.00000000E+00
  0.00000000E+00  0.00000000E+00  0.00000000E+00
  0.00000000E+00  0.00000000E+00  0.00000000E+00
  0.00000000E+00  0.00000000E+00  0.00000000E+00
  0.00000000E+00  0.00000000E+00  0.00000000E+00
  0.00000000E+00  0.00000000E+00  0.00000000E+00
  0.00000000E+00  0.00000000E+00  0.00000000E+00
  0.00000000E+00  0.00000000E+00  0.00000000E+00
  0.00000000E+00  0.00000000E+00  0.00000000E+00
  0.00000000E+00  0.00000000E+00  0.00000000E+00
  0.00000000E+00  0.00000000E+00  0.00000000E+00
  0.00000000E+00  0.00000000E+00  0.00000000E+00
  0.00000000E+00  0.00000000E+00  0.00000000E+00
  0.00000000E+00  0.00000000E+00  0.00000000E+00
  0.00000000E+00  0.00000000E+00  0.00000000E+00
  0.00000000E+00  0.00000000E+00  0.00000000E+00
  0.00000000E+00  0.00000000E+00  0.00000000E+00
  0.00000000E+00  0.00000000E+00  0.00000000E+00
  0.00000000E+00  0.00000000E+00  0.00000000E+00
  0.00000000E+00  0.00000000E+00  0.00000000E+00
  0.00000000E+00  0.00000000E+00  0.00000000E+00
  0.00000000E+00  0.00000000E+00  0.00000000E+00
  0.00000000E+00  0.00000000E+00  0.00000000E+00
  0.00000000E+00  0.00000000E+00  0.00000000E+00
  0.00000000E+00  0.00000000E+00  0.00000000E+00
  0.00000000E+00  0.00000000E+00  0.00000000E+00
  0.00000000E+00  0.00000000E+00  0.00000000E+00
  0.00000000E+00  0.00000000E+00  0.00000000E+00
  0.00000000E+00  0.00000000E+00  0.00000000E+00
  0.00000000E+00  0.00000000E+00  0.00000000E+00
  0.00000000E+00  0.00000000E+00  0.00000000E+00
  0.00000000E+00  0.00000000E+00  0.00000000E+00
  0.00000000E+00  0.00000000E+00  0.00000000E+00
  0.00000000E+00  0.00000000E+00  0.00000000E+00
  0.00000000E+00  0.00000000E+00  0.00000000E+00
  0.00000000E+00  0.00000000E+00  0.00000000E+00
  0.00000000E+00  0.00000000E+00  0.00000000E+00
  0.00000000E+00  0.00000000E+00  0.00000000E+00
  0.00000000E+00  0.00000000E+00  0.00000000E+00
  0.00000000E+00  0.00000000E+00  0.00000000E+00
  0.00000000E+00  0.00000000E+00  0.00000000E+00
  0.00000000E+00  0.00000000E+00  0.00000000E+00
  0.00000000E+00  0.00000000E+00  0.00000000E+00
  0.00000000E+00  0.00000000E+00  0.00000000E+00
  0.00000000E+00  0.00000000E+00  0.00000000E+00
  0.00000000E+00  0.00000000E+00  0.00000000E+00
  0.00000000E+00  0.00000000E+00  0.00000000E+00
  0.00000000E+00  0.00000000E+00  0.00000000E+00
  0.00000000E+00  0.00000000E+00  0.00000000E+00
  0.00000000E+00  0.00000000E+00  0.00000000E+00
  0.00000000E+00  0.00000000E+00  0.00000000E+00
  0.00000000E+00  0.00000000E+00  0.00000000E+00
  0.00000000E+00  0.00000000E+00  0.00000000E+00
  0.00000000E+00  0.00000000E+00  0.00000000E+00
  0.00000000E+00  0.00000000E+00  0.00000000E+00
  0.00000000E+00  0.00000000E+00  0.00000000E+00
  0.00000000E+00  0.00000000E+00  0.00000000E+00
  0.00000000E+00  0.00000000E+00  0.00000000E+00
  0.00000000E+00  0.00000000E+00  0.00000000E+00
  0.00000000E+00  0.00000000E+00  0.00000000E+00
  0.00000000E+00  0.00000000E+00  0.00000000E+00
  0.00000000E+00  0.00000000E+00  0.00000000E+00
  0.00000000E+00  0.00000000E+00  0.00000000E+00
  0.00000000E+00  0.00000000E+00  0.00000000E+00
  0.00000000E+00  0.00000000E+00  0.00000000E+00
  0.00000000E+00  0.00000000E+00  0.00000000E+00
  0.00000000E+00  0.00000000E+00  0.00000000E+00
  0.00000000E+00  0.00000000E+00  0.00000000E+00
  0.00000000E+00  0.00000000E+00  0.00000000E+00
  0.00000000E+00  0.00000000E+00  0.00000000E+00
  0.00000000E+00  0.00000000E+00  0.00000000E+00
  0.00000000E+00  0.00000000E+00  0.00000000E+00
  0.00000000E+00  0.00000000E+00  0.00000000E+00
  0.00000000E+00  0.00000000E+00  0.00000000E+00
  0.00000000E+00  0.00000000E+00  0.00000000E+00
  0.00000000E+00  0.00000000E+00  0.00000000E+00
  0.00000000E+00  0.00000000E+00  0.00000000E+00
  0.00000000E+00  0.00000000E+00  0.00000000E+00
  0.00000000E+00  0.00000000E+00  0.00000000E+00
  0.00000000E+00  0.00000000E+00  0.00000000E+00
  0.00000000E+00  0.00000000E+00  0.00000000E+00
  0.00000000E+00  0.00000000E+00  0.00000000E+00
  0.00000000E+00  0.00000000E+00  0.00000000E+00
  0.00000000E+00  0.00000000E+00  0.00000000E+00
  0.00000000E+00  0.00000000E+00  0.00000000E+00
  0.00000000E+00  0.00000000E+00  0.00000000E+00
  0.00000000E+00  0.00000000E+00  0.00000000E+00
  0.00000000E+00  0.00000000E+00  0.00000000E+00
  0.00000000E+00  0.00000000E+00  0.00000000E+00
  0.00000000E+00  0.00000000E+00  0.00000000E+00
  0.00000000E+00  0.00000000E+00  0.00000000E+00
  0.00000000E+00  0.00000000E+00  0.00000000E+00
  0.00000000E+00  0.00000000E+00  0.00000000E+00
  0.00000000E+00  0.00000000E+00  0.00000000E+00
  0.00000000E+00  0.00000000E+00  0.00000000E+00
  0.00000000E+00  0.00000000E+00  0.00000000E+00
  0.00000000E+00  0.00000000E+00  0.00000000E+00
  0.00000000E+00  0.00000000E+00  0.00000000E+00
  0.00000000E+00  0.00000000E+00  0.00000000E+00
  0.00000000E+00  0.00000000E+00  0.00000000E+00
  0.00000000E+00  0.00000000E+00  0.00000000E+00
  0.00000000E+00  0.00000000E+00  0.00000000E+00
  0.00000000E+00  0.00000000E+00  0.00000000E+00
  0.00000000E+00  0.00000000E+00  0.00000000E+00
  0.00000000E+00  0.00000000E+00  0.00000000E+00
  0.00000000E+00  0.00000000E+00  0.00000000E+00
  0.00000000E+00  0.00000000E+00  0.00000000E+00
  0.00000000E+00  0.00000000E+00  0.00000000E+00
  0.00000000E+00  0.00000000E+00  0.00000000E+00
  0.00000000E+00  0.00000000E+00  0.00000000E+00
  0.00000000E+00  0.00000000E+00  0.00000000E+00
  0.00000000E+00  0.00000000E+00  0.00000000E+00
  0.00000000E+00  0.00000000E+00  0.00000000E+00
  0.00000000E+00  0.00000000E+00  0.00000000E+00
  0.00000000E+00  0.00000000E+00  0.00000000E+00
  0.00000000E+00  0.00000000E+00  0.00000000E+00
  0.00000000E+00  0.00000000E+00  0.00000000E+00
  0.00000000E+00  0.00000000E+00  0.00000000E+00
  0.00000000E+00  0.00000000E+00  0.00000000E+00
  0.00000000E+00  0.00000000E+00  0.00000000E+00
  0.00000000E+00  0.00000000E+00  0.00000000E+00
  0.00000000E+00  0.00000000E+00  0.00000000E+00
  0.00000000E+00  0.00000000E+00  0.00000000E+00
  0.00000000E+00  0.00000000E+00  0.00000000E+00
  0.00000000E+00  0.00000000E+00  0.00000000E+00
  0.00000000E+00  0.00000000E+00  0.00000000E+00
  0.00000000E+00  0.00000000E+00  0.00000000E+00
  0.00000000E+00  0.00000000E+00  0.00000000E+00
  0.00000000E+00  0.00000000E+00  0.00000000E+00
  0.00000000E+00  0.00000000E+00  0.00000000E+00
  0.00000000E+00  0.00000000E+00  0.00000000E+00
  0.00000000E+00  0.00000000E+00  0.00000000E+00
  0.00000000E+00  0.00000000E+00  0.00000000E+00
  0.00000000E+00  0.00000000E+00  0.00000000E+00
  0.00000000E+00  0.00000000E+00  0.00000000E+00
  0.00000000E+00  0.00000000E+00  0.00000000E+00
  0.00000000E+00  0.00000000E+00  0.00000000E+00
  0.00000000E+00  0.00000000E+00  0.00000000E+00
  0.00000000E+00  0.00000000E+00  0.00000000E+00
  0.00000000E+00  0.00000000E+00  0.00000000E+00
  0.00000000E+00  0.00000000E+00  0.00000000E+00
  0.00000000E+00  0.00000000E+00  0.00000000E+00
  0.00000000E+00  0.00000000E+00  0.00000000E+00
  0.00000000E+00  0.00000000E+00  0.00000000E+00
  0.00000000E+00  0.00000000E+00  0.00000000E+00
  0.00000000E+00  0.00000000E+00  0.00000000E+00
  0.00000000E+00  0.00000000E+00  0.00000000E+00
  0.00000000E+00  0.00000000E+00  0.00000000E+00
  0.00000000E+00  0.00000000E+00  0.00000000E+00
  0.00000000E+00  0.00000000E+00  0.00000000E+00
  0.00000000E+00  0.00000000E+00  0.00000000E+00
  0.00000000E+00  0.00000000E+00  0.00000000E+00
  0.00000000E+00  0.00000000E+00  0.00000000E+00
  0.00000000E+00  0.00000000E+00  0.00000000E+00
  0.00000000E+00  0.00000000E+00  0.00000000E+00
  0.00000000E+00  0.00000000E+00  0.00000000E+00
  0.00000000E+00  0.00000000E+00  0.00000000E+00
  0.00000000E+00  0.00000000E+00  0.00000000E+00
  0.00000000E+00  0.00000000E+00  0.00000000E+00
  0.00000000E+00  0.00000000E+00  0.00000000E+00
  0.00000000E+00  0.00000000E+00  0.00000000E+00
  0.00000000E+00  0.00000000E+00  0.00000000E+00
  0.00000000E+00  0.00000000E+00  0.00000000E+00
  0.00000000E+00  0.00000000E+00  0.00000000E+00
  0.00000000E+00  0.00000000E+00  0.00000000E+00
  0.00000000E+00  0.00000000E+00  0.00000000E+00
  0.00000000E+00  0.00000000E+00  0.00000000E+00
  0.00000000E+00  0.00000000E+00  0.00000000E+00
  0.00000000E+00  0.00000000E+00  0.00000000E+00
  0.00000000E+00  0.00000000E+00  0.00000000E+00
  0.00000000E+00  0.00000000E+00  0.00000000E+00
  0.00000000E+00  0.00000000E+00  0.00000000E+00
  0.00000000E+00  0.00000000E+00  0.00000000E+00
  0.00000000E+00  0.00000000E+00  0.00000000E+00
  0.00000000E+00  0.00000000E+00  0.00000000E+00
  0.00000000E+00  0.00000000E+00  0.00000000E+00
  0.00000000E+00  0.00000000E+00  0.00000000E+00
  0.00000000E+00  0.00000000E+00  0.00000000E+00
  0.00000000E+00  0.00000000E+00  0.00000000E+00
  0.00000000E+00  0.00000000E+00  0.00000000E+00
  0.00000000E+00  0.00000000E+00  0.00000000E+00
  0.00000000E+00  0.00000000E+00  0.00000000E+00
  0.00000000E+00  0.00000000E+00  0.00000000E+00
  0.00000000E+00  0.00000000E+00  0.00000000E+00
  0.00000000E+00  0.00000000E+00  0.00000000E+00
  0.00000000E+00  0.00000000E+00  0.00000000E+00
  0.00000000E+00  0.00000000E+00  0.00000000E+00
  0.00000000E+00  0.00000000E+00  0.00000000E+00
  0.00000000E+00  0.00000000E+00  0.00000000E+00
  0.00000000E+00  0.00000000E+00  0.00000000E+00
  0.00000000E+00  0.00000000E+00  0.00000000E+00
  0.00000000E+00  0.00000000E+00  0.00000000E+00
  0.00000000E+00  0.00000000E+00  0.00000000E+00
  0.00000000E+00  0.00000000E+00  0.00000000E+00
  0.00000000E+00  0.00000000E+00  0.00000000E+00
  0.00000000E+00  0.00000000E+00  0.00000000E+00
  0.00000000E+00  0.00000000E+00  0.00000000E+00
  0.00000000E+00  0.00000000E+00  0.00000000E+00
  0.00000000E+00  0.00000000E+00  0.00000000E+00
  0.00000000E+00  0.00000000E+00  0.00000000E+00
  0.00000000E+00  0.00000000E+00  0.00000000E+00
