New structure                           
    1.000000000000000     
     0.0000000000000000  -15.1462217587961998    0.0000000000000000
     0.0000000000000000   -7.5731108793980804  -13.1170128144700993
    29.0000000000000000    0.0000000000000000    0.0000000000000000
   Ni   O 
   252     1
Direct
  0.4444491945886301  0.4444349441560683  0.1084227236144378
  0.4444380408708514  0.7777622083329729  0.1083926783904491
  0.4444116155421934  0.1111558763193418  0.1083990618641534
  0.7777722915571597  0.4444278037054634  0.1083810662372993
  0.7777993321924005  0.7777346689485348  0.1084508920867639
  0.7777658414718005  0.1111558763193418  0.1083990618641534
  0.1111332380707126  0.4444278037054634  0.1083810662372993
  0.1111330841295114  0.7777622083329729  0.1083926783904491
  0.1111110875647258  0.1111111582038913  0.1083269504895160
  0.5555183099696217  0.5555361918213555  0.1765041599996610
  0.5554701762870202  0.8888144393202713  0.1764282271882446
  0.5554761200431062  0.2223810932471234  0.1764576602065406
  0.8889300726808808  0.5554731879715674  0.1764147993462774
  0.8890487177260372  0.8888144393202713  0.1764282271882446
  0.8888804109186034  0.2222834354992216  0.1764241148860566
  0.2222788315423584  0.5555361918213555  0.1765041599996610
  0.2222332264685482  0.8888668803962322  0.1764850965324059
  0.2221694869155036  0.2222834354992216  0.1764241148860566
  0.6665389601683308  0.6666200009867584  0.2440827668900109
  0.6666198536590004  0.0000936260153282  0.2440605665197975
  0.6665533478303989  0.3334744686448482  0.2441785102769425
  0.0001743721782395  0.6666200009867584  0.2440827668900109
  0.0000401812483508 -0.0000631510810406  0.2440681543191008
  0.0000048368902158  0.3333236595529041  0.2440639913620512
  0.3333614436243597  0.6666104460846164  0.2442766488619521
  0.3333563031660258 -0.0000631510810406  0.2440681543191008
  0.3333055168580890  0.3334744686448482  0.2441785102769425
  0.7777855165940752  0.7777623001451855  0.3116728124268658
  0.7776652192975883  0.1111803234371086  0.3116464644126263
  0.7777869118825711  0.4443968891320805  0.3117403276592541
  0.1113337105976348  0.7776461388805901  0.3118447888866190
  0.1110874214160030  0.1111584905013368  0.3117366404179341
  0.1111495323186838  0.4443968891320805  0.3117403276592541
  0.4443534838551109  0.7776461388805901  0.3118447888866190
  0.4444877905986389  0.1111803234371086  0.3116464644126263
  0.4443560443461114  0.4446212446411060  0.3121014714574494
  0.8891449839401397  0.8886605840068618  0.3792488063889436
  0.8888717137295885  0.2222036294441264  0.3793282873069596
  0.8888219272192170  0.5556894788948944  0.3791951967318941
  0.2222157851527155  0.8889017630278977  0.3794208821032169
  0.2222579901596136  0.2222036294441264  0.3793282873069596
  0.2222895673089761  0.5556575446356883  0.3797649678701051
  0.5555277653863274  0.8886605840068618  0.3792488063889436
  0.5553542316892659  0.2226248699548043  0.3794159431759317
  0.5553862213886711  0.5556575446356883  0.3797649678701051
 -0.0003210197979349  0.0000599212183445  0.4468577496894143
  0.0000196479157029  0.3332940375019296  0.4470356864058360
  0.0003635247809519  0.6667052352042061  0.4469417153600889
  0.3335944319129261  0.0000599212183445  0.4468577496894143
  0.3334130025581899  0.3328419556288520  0.4470253453266998
  0.3332143252049197  0.6669046829234964  0.4478582967926610
  0.6666359218490878  0.0000614896351525  0.4469035217851016
  0.6670783751462938  0.3328419556288520  0.4470253453266998
  0.6662645733481707  0.6667052352042061  0.4469417153600889
  0.1109086182532592  0.1115160968268242  0.5151979275792198
  0.1099762861674607  0.4442505629465650  0.5150229957824182
  0.1099809199433998  0.7788746337048325  0.5150894484436221
  0.4447024949479738  0.1105505199329500  0.5148754748461322
  0.4459973992417056  0.4413385348499174  0.5187378644266052
  0.4444777796851034  0.7788746337048325  0.5150894484436221
  0.7780803184524120  0.1105505199329500  0.5148754748461322
  0.7791064842193098  0.4442505629465650  0.5150229957824182
  0.7777023629140885  0.7779286075051586  0.5149194058792869
  0.2777611370387991  0.2777999047373767  0.1083810662372993
  0.2777682774894040  0.6111158612553015  0.1084227236144378
  0.2777611370387991  0.9444389582238240  0.1083810662372993
  0.6110955416663086  0.2777997507961758  0.1083926783904491
  0.6110955416663086  0.6111047075375226  0.1083926783904491
  0.6110680022818705  0.9444659988590648  0.1084508920867639
  0.9444444915372202  0.2777777542313899  0.1083269504895160
  0.9444892096526702  0.6110782822088647  0.1083990618641534
  0.9444892096526702  0.9444325081384648  0.1083990618641534
  0.3888695251546839  0.3889454982090229  0.1765041599996610
  0.3888695251546839  0.7221849766362860  0.1765041599996610
  0.3888065213048961  0.0555967393475520  0.1764147993462774
  0.7222002137295679  0.3888998931352125  0.1764850965324059
  0.7221477726536070  0.7221368429536845  0.1764282271882446
  0.7221477726536070  0.0557153843927088  0.1764282271882446
  0.0556167688325573  0.3888361535821681  0.1764241148860566
  0.0557144265804590  0.7221427867097705  0.1764576602065406
  0.0556167688325573  0.0555470775852747  0.1764241148860566
  0.4999437794179519  0.5000281102910243  0.2442766488619521
  0.4999533343200944  0.8332056268350022  0.2440827668900109
  0.4999533343200944  0.1668410388449039  0.2440827668900109
  0.8332701822522951  0.5000229698326895  0.2440681543191008
  0.8334269593486638  0.8332865203256719  0.2440605665197975
  0.8332701822522951  0.1667068479150150  0.2440681543191008
  0.1668078019781768  0.4999721835247532  0.2441785102769425
  0.1668078019781768  0.8332200144970703  0.2441785102769425
  0.1666569928862326  0.1666715035568801  0.2440639913620512
  0.6109794722139258  0.6110201505217822  0.3118447888866190
  0.6110956334785212  0.9444521832607395  0.3116728124268658
  0.6109794722139258  0.2780003772642991  0.3118447888866190
  0.9445136567704374  0.6111544572653103  0.3116464644126263
  0.9445136567704374  0.9443318859642525  0.3116464644126263
  0.9444918238346658  0.2777540880826671  0.3117366404179341
  0.2779545779744417  0.6110227110127827  0.3121014714574494
  0.2777302224654162  0.9444535785492354  0.3117403276592541
  0.2777302224654162  0.2778161989853482  0.3117403276592541
  0.7219939173401975  0.7221944320529917  0.3792488063889436
  0.7219939173401975  0.0558116506068110  0.3792488063889436
  0.7222350963612334  0.3888824518193797  0.3794208821032169
  0.0559582032881399  0.7220208983559302  0.3794159431759317
  0.0555369627774620  0.0555383803962602  0.3793282873069596
  0.0555369627774620  0.3889246568262777  0.3793282873069596
  0.3889908779690170  0.7220528880553354  0.3797649678701051
  0.3890228122282233  0.0554885938858884  0.3791951967318941
  0.3889908779690170  0.3889562339756403  0.3797649678701051
  0.8333948229684879  0.8333025885157592  0.4469035217851016
  0.8333932545516800  0.1663456468687294  0.4468577496894143
  0.8333932545516800  0.5002610985795901  0.4468577496894143
  0.1661752889621805  0.8337450418129652  0.4470253453266998
  0.1666273708352586  0.1666863145823674  0.4470356864058360
  0.1661752889621805  0.5000796692248544  0.4470253453266998
  0.5000385685375417  0.8329312400148421  0.4469417153600889
  0.5000385685375417  0.1670301914476162  0.4469417153600889
  0.5002380162568318  0.4998809918715840  0.4478582967926610
  0.9438838532662787  0.9447469851190763  0.5148754748461322
  0.9448494301601531  0.2775752849199234  0.5151979275792198
  0.9438838532662787  0.6113691616146451  0.5148754748461322
  0.2775838962799007  0.9457731508859741  0.5150229957824182
  0.2775838962799007  0.2766429528341252  0.5150229957824182
  0.2746718681832531  0.6126640659083770  0.5187378644266051
  0.6112619408384943  0.9443690295807528  0.5149194058792868
  0.6122079670381682  0.2766475866100641  0.5150894484436221
  0.6122079670381682  0.6111444463517749  0.5150894484436221
  0.2777934320533946  0.4444600987200589  0.1084292444533596
  0.2777934320533946  0.7777464692265464  0.1084292444533596
  0.2777520342555643  0.1111239828722214  0.1084051667650697
  0.6110798025598821  0.4444600987200589  0.1084292444533596
  0.6110928819903638  0.7777595486570281  0.1083598662330410
  0.6110928819903638  0.1111475693526150  0.1083598662330410
  0.9444573162055501  0.4444187009222286  0.1084051667650697
  0.9444809026859435  0.7777595486570281  0.1083598662330410
  0.9444573162055501  0.1111239828722214  0.1084051667650697
  0.3888888888888857  0.5555555555555571  0.1765224189068017
  0.3887875300161794  0.8888387873820598  0.1764440790909419
  0.3887875300161794  0.2223736826017535  0.1764440790909419
  0.7221721207153955  0.5554541966828509  0.1764440790909419
  0.7222222222222214  0.8888888888888857  0.1765067218745635
  0.7221721207153955  0.2223736826017535  0.1764440790909419
  0.0557070159350891  0.5554541966828509  0.1764440790909419
  0.0557070159350891  0.8888387873820598  0.1764440790909419
  0.0555555555555571  0.2222222222222214  0.1763912200850974
  0.4998843704548120  0.6665510371214761  0.2442499616314590
  0.5000485524938932 -0.0000242762469466  0.2440352088648124
  0.4998843704548120  0.3335645924237118  0.2442499616314590
  0.8333090570863892  0.6667152191605575  0.2440352088648124
  0.8333090570863892 -0.0000242762469466  0.2440352088648124
  0.8333293947763825  0.3333353026118123  0.2441094269920650
  0.1668979257570404  0.6665510371214761  0.2442499616314590
  0.1666686359451409 -0.0000039385569531  0.2441094269920650
  0.1666686359451409  0.3333353026118123  0.2441094269920650
  0.6110423878934420  0.7777090545601063  0.3116375609592781
  0.6110423878934420  0.1112485575464595  0.3116375609592781
  0.6109955787290738  0.4445022106354631  0.3119741122555669
  0.9445818908797881  0.7777090545601063  0.3116375609592781
  0.9444639683688211  0.1111306350354926  0.3116856808764686
  0.9444639683688211  0.4444053965956863  0.3116856808764686
  0.2778355439687988  0.7776622453957381  0.3119741122555669
  0.2777387299290220  0.1111306350354926  0.3116856808764686
  0.2778355439687988  0.4445022106354631  0.3119741122555669
  0.7222222222222214  0.8888888888888857  0.3792535918966395
  0.7221422899361247  0.2222865796873019  0.3792796637295849
  0.7221422899361247  0.5555711303765731  0.3792796637295849
  0.0556199130206376  0.8888089566027890  0.3792796637295849
  0.0555555555555571  0.2222222222222214  0.3793380623578887
  0.0556199130206376  0.5555711303765731  0.3792796637295849
  0.3889044637099019  0.8888089566027890  0.3792796637295849
  0.3889044637099019  0.2222865796873019  0.3792796637295849
  0.3888888888888857  0.5555555555555571  0.3801762919003082
  0.8331317247122157 -0.0002016086211201  0.4467739876400501
  0.8335929499371368  0.3332035250314351  0.4470507816754628
  0.8331317247122157  0.6670698839089044  0.4467739876400501
  0.1665368583647639  0.0002596166038008  0.4470507816754628
  0.1665368583647639  0.3332035250314351  0.4470507816754628
  0.1683426038793452  0.6658286980603239  0.4482710683834450
  0.5004032172422401 -0.0002016086211201  0.4467739876400501
  0.4991620313936596  0.3350092705460166  0.4482710683834450
  0.4991620313936596  0.6658286980603239  0.4482710683834450
  0.9444914751902708  0.1111581418569424  0.5149839830168057
  0.9444914751902708  0.4443503829527866  0.5149839830168057
  0.9439819495428958  0.7780090252285522  0.5150222815598385
  0.2776837162861223  0.1111581418569424  0.5149839830168057
  0.2751734790536252  0.4418401457202895  0.5146326181660054
  0.2751734790536252  0.7829863752260854  0.5146326181660054
  0.6113423585618879  0.1106486162095674  0.5150222815598385
  0.6163197085594211  0.4418401457202895  0.5146326181660054
  0.6113423585618879  0.7780090252285522  0.5150222815598385
  0.4444380408708514  0.2777997507961758  0.1083926783904491
  0.4444491945886301  0.6111158612553015  0.1084227236144378
  0.4444116155421934  0.9444325081384648  0.1083990618641534
  0.7777722915571597  0.2777999047373767  0.1083810662372993
  0.7777658414718005  0.6110782822088647  0.1083990618641534
  0.7777993321924005  0.9444659988590648  0.1084508920867639
  0.1111110875647258  0.2777777542313899  0.1083269504895160
  0.1111330841295114  0.6111047075375226  0.1083926783904491
  0.1111332380707126  0.9444389582238240  0.1083810662372993
  0.5555183099696217  0.3889454982090229  0.1765041599996610
  0.5554761200431062  0.7221427867097705  0.1764576602065406
  0.5554701762870202  0.0557153843927088  0.1764282271882446
  0.8888804109186034  0.3888361535821681  0.1764241148860566
  0.8890487177260372  0.7221368429536845  0.1764282271882446
  0.8889300726808808  0.0555967393475520  0.1764147993462774
  0.2222332264685482  0.3888998931352125  0.1764850965324059
  0.2222788315423584  0.7221849766362860  0.1765041599996610
  0.2221694869155036  0.0555470775852747  0.1764241148860566
  0.6665533478303989  0.4999721835247532  0.2441785102769425
  0.6666198536590004  0.8332865203256719  0.2440605665197975
  0.6665389601683308  0.1668410388449039  0.2440827668900109
  0.0000401812483508  0.5000229698326895  0.2440681543191008
  0.0001743721782395  0.8332056268350022  0.2440827668900109
  0.0000048368902158  0.1666715035568801  0.2440639913620512
  0.3333614436243597  0.5000281102910243  0.2442766488619521
  0.3333055168580890  0.8332200144970703  0.2441785102769425
  0.3333563031660258  0.1667068479150150  0.2440681543191008
  0.7776652192975883  0.6111544572653103  0.3116464644126263
  0.7777855165940752  0.9444521832607395  0.3116728124268658
  0.7777869118825711  0.2778161989853482  0.3117403276592541
  0.1113337105976348  0.6110201505217822  0.3118447888866190
  0.1111495323186838  0.9444535785492354  0.3117403276592541
  0.1110874214160030  0.2777540880826671  0.3117366404179341
  0.4443560443461114  0.6110227110127827  0.3121014714574494
  0.4444877905986389  0.9443318859642525  0.3116464644126263
  0.4443534838551109  0.2780003772642991  0.3118447888866190
  0.8891449839401397  0.7221944320529917  0.3792488063889436
  0.8888219272192170  0.0554885938858884  0.3791951967318941
  0.8888717137295885  0.3889246568262777  0.3793282873069596
  0.2222895673089761  0.7220528880553354  0.3797649678701051
  0.2222579901596136  0.0555383803962602  0.3793282873069596
  0.2222157851527155  0.3888824518193797  0.3794208821032169
  0.5553542316892659  0.7220208983559302  0.3794159431759317
  0.5555277653863274  0.0558116506068110  0.3792488063889436
  0.5553862213886711  0.3889562339756403  0.3797649678701051
  0.0003635247809519  0.8329312400148421  0.4469417153600889
  0.0000196479157029  0.1666863145823674  0.4470356864058360
 -0.0003210197979349  0.5002610985795901  0.4468577496894143
  0.3334130025581899  0.8337450418129652  0.4470253453266998
  0.3335944319129261  0.1663456468687294  0.4468577496894143
  0.3332143252049197  0.4998809918715840  0.4478582967926610
  0.6666359218490878  0.8333025885157592  0.4469035217851016
  0.6662645733481707  0.1670301914476162  0.4469417153600889
  0.6670783751462938  0.5000796692248544  0.4470253453266998
  0.1099762861674607  0.9457731508859741  0.5150229957824182
  0.1109086182532592  0.2775752849199234  0.5151979275792198
  0.1099809199433998  0.6111444463517749  0.5150894484436221
  0.4447024949479738  0.9447469851190763  0.5148754748461322
  0.4444777796851034  0.2766475866100641  0.5150894484436221
  0.4459973992417056  0.6126640659083770  0.5187378644266051
  0.7777023629140885  0.9443690295807528  0.5149194058792869
  0.7791064842193098  0.2766429528341252  0.5150229957824182
  0.7780803184524120  0.6113691616146451  0.5148754748461322
  0.3888888888888857  0.5555555555555571  0.5537959276852020
 
  0.00000000E+00  0.00000000E+00  0.00000000E+00
  0.00000000E+00  0.00000000E+00  0.00000000E+00
  0.00000000E+00  0.00000000E+00  0.00000000E+00
  0.00000000E+00  0.00000000E+00  0.00000000E+00
  0.00000000E+00  0.00000000E+00  0.00000000E+00
  0.00000000E+00  0.00000000E+00  0.00000000E+00
  0.00000000E+00  0.00000000E+00  0.00000000E+00
  0.00000000E+00  0.00000000E+00  0.00000000E+00
  0.00000000E+00  0.00000000E+00  0.00000000E+00
  0.00000000E+00  0.00000000E+00  0.00000000E+00
  0.00000000E+00  0.00000000E+00  0.00000000E+00
  0.00000000E+00  0.00000000E+00  0.00000000E+00
  0.00000000E+00  0.00000000E+00  0.00000000E+00
  0.00000000E+00  0.00000000E+00  0.00000000E+00
  0.00000000E+00  0.00000000E+00  0.00000000E+00
  0.00000000E+00  0.00000000E+00  0.00000000E+00
  0.00000000E+00  0.00000000E+00  0.00000000E+00
  0.00000000E+00  0.00000000E+00  0.00000000E+00
  0.00000000E+00  0.00000000E+00  0.00000000E+00
  0.00000000E+00  0.00000000E+00  0.00000000E+00
  0.00000000E+00  0.00000000E+00  0.00000000E+00
  0.00000000E+00  0.00000000E+00  0.00000000E+00
  0.00000000E+00  0.00000000E+00  0.00000000E+00
  0.00000000E+00  0.00000000E+00  0.00000000E+00
  0.00000000E+00  0.00000000E+00  0.00000000E+00
  0.00000000E+00  0.00000000E+00  0.00000000E+00
  0.00000000E+00  0.00000000E+00  0.00000000E+00
  0.00000000E+00  0.00000000E+00  0.00000000E+00
  0.00000000E+00  0.00000000E+00  0.00000000E+00
  0.00000000E+00  0.00000000E+00  0.00000000E+00
  0.00000000E+00  0.00000000E+00  0.00000000E+00
  0.00000000E+00  0.00000000E+00  0.00000000E+00
  0.00000000E+00  0.00000000E+00  0.00000000E+00
  0.00000000E+00  0.00000000E+00  0.00000000E+00
  0.00000000E+00  0.00000000E+00  0.00000000E+00
  0.00000000E+00  0.00000000E+00  0.00000000E+00
  0.00000000E+00  0.00000000E+00  0.00000000E+00
  0.00000000E+00  0.00000000E+00  0.00000000E+00
  0.00000000E+00  0.00000000E+00  0.00000000E+00
  0.00000000E+00  0.00000000E+00  0.00000000E+00
  0.00000000E+00  0.00000000E+00  0.00000000E+00
  0.00000000E+00  0.00000000E+00  0.00000000E+00
  0.00000000E+00  0.00000000E+00  0.00000000E+00
  0.00000000E+00  0.00000000E+00  0.00000000E+00
  0.00000000E+00  0.00000000E+00  0.00000000E+00
  0.00000000E+00  0.00000000E+00  0.00000000E+00
  0.00000000E+00  0.00000000E+00  0.00000000E+00
  0.00000000E+00  0.00000000E+00  0.00000000E+00
  0.00000000E+00  0.00000000E+00  0.00000000E+00
  0.00000000E+00  0.00000000E+00  0.00000000E+00
  0.00000000E+00  0.00000000E+00  0.00000000E+00
  0.00000000E+00  0.00000000E+00  0.00000000E+00
  0.00000000E+00  0.00000000E+00  0.00000000E+00
  0.00000000E+00  0.00000000E+00  0.00000000E+00
  0.00000000E+00  0.00000000E+00  0.00000000E+00
  0.00000000E+00  0.00000000E+00  0.00000000E+00
  0.00000000E+00  0.00000000E+00  0.00000000E+00
  0.00000000E+00  0.00000000E+00  0.00000000E+00
  0.00000000E+00  0.00000000E+00  0.00000000E+00
  0.00000000E+00  0.00000000E+00  0.00000000E+00
  0.00000000E+00  0.00000000E+00  0.00000000E+00
  0.00000000E+00  0.00000000E+00  0.00000000E+00
  0.00000000E+00  0.00000000E+00  0.00000000E+00
  0.00000000E+00  0.00000000E+00  0.00000000E+00
  0.00000000E+00  0.00000000E+00  0.00000000E+00
  0.00000000E+00  0.00000000E+00  0.00000000E+00
  0.00000000E+00  0.00000000E+00  0.00000000E+00
  0.00000000E+00  0.00000000E+00  0.00000000E+00
  0.00000000E+00  0.00000000E+00  0.00000000E+00
  0.00000000E+00  0.00000000E+00  0.00000000E+00
  0.00000000E+00  0.00000000E+00  0.00000000E+00
  0.00000000E+00  0.00000000E+00  0.00000000E+00
  0.00000000E+00  0.00000000E+00  0.00000000E+00
  0.00000000E+00  0.00000000E+00  0.00000000E+00
  0.00000000E+00  0.00000000E+00  0.00000000E+00
  0.00000000E+00  0.00000000E+00  0.00000000E+00
  0.00000000E+00  0.00000000E+00  0.00000000E+00
  0.00000000E+00  0.00000000E+00  0.00000000E+00
  0.00000000E+00  0.00000000E+00  0.00000000E+00
  0.00000000E+00  0.00000000E+00  0.00000000E+00
  0.00000000E+00  0.00000000E+00  0.00000000E+00
  0.00000000E+00  0.00000000E+00  0.00000000E+00
  0.00000000E+00  0.00000000E+00  0.00000000E+00
  0.00000000E+00  0.00000000E+00  0.00000000E+00
  0.00000000E+00  0.00000000E+00  0.00000000E+00
  0.00000000E+00  0.00000000E+00  0.00000000E+00
  0.00000000E+00  0.00000000E+00  0.00000000E+00
  0.00000000E+00  0.00000000E+00  0.00000000E+00
  0.00000000E+00  0.00000000E+00  0.00000000E+00
  0.00000000E+00  0.00000000E+00  0.00000000E+00
  0.00000000E+00  0.00000000E+00  0.00000000E+00
  0.00000000E+00  0.00000000E+00  0.00000000E+00
  0.00000000E+00  0.00000000E+00  0.00000000E+00
  0.00000000E+00  0.00000000E+00  0.00000000E+00
  0.00000000E+00  0.00000000E+00  0.00000000E+00
  0.00000000E+00  0.00000000E+00  0.00000000E+00
  0.00000000E+00  0.00000000E+00  0.00000000E+00
  0.00000000E+00  0.00000000E+00  0.00000000E+00
  0.00000000E+00  0.00000000E+00  0.00000000E+00
  0.00000000E+00  0.00000000E+00  0.00000000E+00
  0.00000000E+00  0.00000000E+00  0.00000000E+00
  0.00000000E+00  0.00000000E+00  0.00000000E+00
  0.00000000E+00  0.00000000E+00  0.00000000E+00
  0.00000000E+00  0.00000000E+00  0.00000000E+00
  0.00000000E+00  0.00000000E+00  0.00000000E+00
  0.00000000E+00  0.00000000E+00  0.00000000E+00
  0.00000000E+00  0.00000000E+00  0.00000000E+00
  0.00000000E+00  0.00000000E+00  0.00000000E+00
  0.00000000E+00  0.00000000E+00  0.00000000E+00
  0.00000000E+00  0.00000000E+00  0.00000000E+00
  0.00000000E+00  0.00000000E+00  0.00000000E+00
  0.00000000E+00  0.00000000E+00  0.00000000E+00
  0.00000000E+00  0.00000000E+00  0.00000000E+00
  0.00000000E+00  0.00000000E+00  0.00000000E+00
  0.00000000E+00  0.00000000E+00  0.00000000E+00
  0.00000000E+00  0.00000000E+00  0.00000000E+00
  0.00000000E+00  0.00000000E+00  0.00000000E+00
  0.00000000E+00  0.00000000E+00  0.00000000E+00
  0.00000000E+00  0.00000000E+00  0.00000000E+00
  0.00000000E+00  0.00000000E+00  0.00000000E+00
  0.00000000E+00  0.00000000E+00  0.00000000E+00
  0.00000000E+00  0.00000000E+00  0.00000000E+00
  0.00000000E+00  0.00000000E+00  0.00000000E+00
  0.00000000E+00  0.00000000E+00  0.00000000E+00
  0.00000000E+00  0.00000000E+00  0.00000000E+00
  0.00000000E+00  0.00000000E+00  0.00000000E+00
  0.00000000E+00  0.00000000E+00  0.00000000E+00
  0.00000000E+00  0.00000000E+00  0.00000000E+00
  0.00000000E+00  0.00000000E+00  0.00000000E+00
  0.00000000E+00  0.00000000E+00  0.00000000E+00
  0.00000000E+00  0.00000000E+00  0.00000000E+00
  0.00000000E+00  0.00000000E+00  0.00000000E+00
  0.00000000E+00  0.00000000E+00  0.00000000E+00
  0.00000000E+00  0.00000000E+00  0.00000000E+00
  0.00000000E+00  0.00000000E+00  0.00000000E+00
  0.00000000E+00  0.00000000E+00  0.00000000E+00
  0.00000000E+00  0.00000000E+00  0.00000000E+00
  0.00000000E+00  0.00000000E+00  0.00000000E+00
  0.00000000E+00  0.00000000E+00  0.00000000E+00
  0.00000000E+00  0.00000000E+00  0.00000000E+00
  0.00000000E+00  0.00000000E+00  0.00000000E+00
  0.00000000E+00  0.00000000E+00  0.00000000E+00
  0.00000000E+00  0.00000000E+00  0.00000000E+00
  0.00000000E+00  0.00000000E+00  0.00000000E+00
  0.00000000E+00  0.00000000E+00  0.00000000E+00
  0.00000000E+00  0.00000000E+00  0.00000000E+00
  0.00000000E+00  0.00000000E+00  0.00000000E+00
  0.00000000E+00  0.00000000E+00  0.00000000E+00
  0.00000000E+00  0.00000000E+00  0.00000000E+00
  0.00000000E+00  0.00000000E+00  0.00000000E+00
  0.00000000E+00  0.00000000E+00  0.00000000E+00
  0.00000000E+00  0.00000000E+00  0.00000000E+00
  0.00000000E+00  0.00000000E+00  0.00000000E+00
  0.00000000E+00  0.00000000E+00  0.00000000E+00
  0.00000000E+00  0.00000000E+00  0.00000000E+00
  0.00000000E+00  0.00000000E+00  0.00000000E+00
  0.00000000E+00  0.00000000E+00  0.00000000E+00
  0.00000000E+00  0.00000000E+00  0.00000000E+00
  0.00000000E+00  0.00000000E+00  0.00000000E+00
  0.00000000E+00  0.00000000E+00  0.00000000E+00
  0.00000000E+00  0.00000000E+00  0.00000000E+00
  0.00000000E+00  0.00000000E+00  0.00000000E+00
  0.00000000E+00  0.00000000E+00  0.00000000E+00
  0.00000000E+00  0.00000000E+00  0.00000000E+00
  0.00000000E+00  0.00000000E+00  0.00000000E+00
  0.00000000E+00  0.00000000E+00  0.00000000E+00
  0.00000000E+00  0.00000000E+00  0.00000000E+00
  0.00000000E+00  0.00000000E+00  0.00000000E+00
  0.00000000E+00  0.00000000E+00  0.00000000E+00
  0.00000000E+00  0.00000000E+00  0.00000000E+00
  0.00000000E+00  0.00000000E+00  0.00000000E+00
  0.00000000E+00  0.00000000E+00  0.00000000E+00
  0.00000000E+00  0.00000000E+00  0.00000000E+00
  0.00000000E+00  0.00000000E+00  0.00000000E+00
  0.00000000E+00  0.00000000E+00  0.00000000E+00
  0.00000000E+00  0.00000000E+00  0.00000000E+00
  0.00000000E+00  0.00000000E+00  0.00000000E+00
  0.00000000E+00  0.00000000E+00  0.00000000E+00
  0.00000000E+00  0.00000000E+00  0.00000000E+00
  0.00000000E+00  0.00000000E+00  0.00000000E+00
  0.00000000E+00  0.00000000E+00  0.00000000E+00
  0.00000000E+00  0.00000000E+00  0.00000000E+00
  0.00000000E+00  0.00000000E+00  0.00000000E+00
  0.00000000E+00  0.00000000E+00  0.00000000E+00
  0.00000000E+00  0.00000000E+00  0.00000000E+00
  0.00000000E+00  0.00000000E+00  0.00000000E+00
  0.00000000E+00  0.00000000E+00  0.00000000E+00
  0.00000000E+00  0.00000000E+00  0.00000000E+00
  0.00000000E+00  0.00000000E+00  0.00000000E+00
  0.00000000E+00  0.00000000E+00  0.00000000E+00
  0.00000000E+00  0.00000000E+00  0.00000000E+00
  0.00000000E+00  0.00000000E+00  0.00000000E+00
  0.00000000E+00  0.00000000E+00  0.00000000E+00
  0.00000000E+00  0.00000000E+00  0.00000000E+00
  0.00000000E+00  0.00000000E+00  0.00000000E+00
  0.00000000E+00  0.00000000E+00  0.00000000E+00
  0.00000000E+00  0.00000000E+00  0.00000000E+00
  0.00000000E+00  0.00000000E+00  0.00000000E+00
  0.00000000E+00  0.00000000E+00  0.00000000E+00
  0.00000000E+00  0.00000000E+00  0.00000000E+00
  0.00000000E+00  0.00000000E+00  0.00000000E+00
  0.00000000E+00  0.00000000E+00  0.00000000E+00
  0.00000000E+00  0.00000000E+00  0.00000000E+00
  0.00000000E+00  0.00000000E+00  0.00000000E+00
  0.00000000E+00  0.00000000E+00  0.00000000E+00
  0.00000000E+00  0.00000000E+00  0.00000000E+00
  0.00000000E+00  0.00000000E+00  0.00000000E+00
  0.00000000E+00  0.00000000E+00  0.00000000E+00
  0.00000000E+00  0.00000000E+00  0.00000000E+00
  0.00000000E+00  0.00000000E+00  0.00000000E+00
  0.00000000E+00  0.00000000E+00  0.00000000E+00
  0.00000000E+00  0.00000000E+00  0.00000000E+00
  0.00000000E+00  0.00000000E+00  0.00000000E+00
  0.00000000E+00  0.00000000E+00  0.00000000E+00
  0.00000000E+00  0.00000000E+00  0.00000000E+00
  0.00000000E+00  0.00000000E+00  0.00000000E+00
  0.00000000E+00  0.00000000E+00  0.00000000E+00
  0.00000000E+00  0.00000000E+00  0.00000000E+00
  0.00000000E+00  0.00000000E+00  0.00000000E+00
  0.00000000E+00  0.00000000E+00  0.00000000E+00
  0.00000000E+00  0.00000000E+00  0.00000000E+00
  0.00000000E+00  0.00000000E+00  0.00000000E+00
  0.00000000E+00  0.00000000E+00  0.00000000E+00
  0.00000000E+00  0.00000000E+00  0.00000000E+00
  0.00000000E+00  0.00000000E+00  0.00000000E+00
  0.00000000E+00  0.00000000E+00  0.00000000E+00
  0.00000000E+00  0.00000000E+00  0.00000000E+00
  0.00000000E+00  0.00000000E+00  0.00000000E+00
  0.00000000E+00  0.00000000E+00  0.00000000E+00
  0.00000000E+00  0.00000000E+00  0.00000000E+00
  0.00000000E+00  0.00000000E+00  0.00000000E+00
  0.00000000E+00  0.00000000E+00  0.00000000E+00
  0.00000000E+00  0.00000000E+00  0.00000000E+00
  0.00000000E+00  0.00000000E+00  0.00000000E+00
  0.00000000E+00  0.00000000E+00  0.00000000E+00
  0.00000000E+00  0.00000000E+00  0.00000000E+00
  0.00000000E+00  0.00000000E+00  0.00000000E+00
  0.00000000E+00  0.00000000E+00  0.00000000E+00
  0.00000000E+00  0.00000000E+00  0.00000000E+00
  0.00000000E+00  0.00000000E+00  0.00000000E+00
  0.00000000E+00  0.00000000E+00  0.00000000E+00
  0.00000000E+00  0.00000000E+00  0.00000000E+00
  0.00000000E+00  0.00000000E+00  0.00000000E+00
  0.00000000E+00  0.00000000E+00  0.00000000E+00
  0.00000000E+00  0.00000000E+00  0.00000000E+00
  0.00000000E+00  0.00000000E+00  0.00000000E+00
  0.00000000E+00  0.00000000E+00  0.00000000E+00
  0.00000000E+00  0.00000000E+00  0.00000000E+00
  0.00000000E+00  0.00000000E+00  0.00000000E+00
  0.00000000E+00  0.00000000E+00  0.00000000E+00
  0.00000000E+00  0.00000000E+00  0.00000000E+00
  0.00000000E+00  0.00000000E+00  0.00000000E+00
  0.00000000E+00  0.00000000E+00  0.00000000E+00
