New structure                           
    1.000000000000000     
     0.0000000000000000  -15.1462217587961998    0.0000000000000000
     0.0000000000000000   -7.5731108793980804  -13.1170128144700993
    29.0000000000000000    0.0000000000000000    0.0000000000000000
   Ni   O 
   252     2
Direct
  0.4424938394714247  0.6101866072594919  0.5141783076157564
  0.6183882191031683  0.4410841754795163  0.5200822566849193
  0.7833347203724476  0.2750330732241187  0.5188396644948874
  0.9452248627336375  0.1114706201573306  0.5177017089233634
  0.9462018172991516  0.2767850956416325  0.5176444371155182
  0.9450845400534599  0.4435954401648837  0.5174969510171326
  0.7775296661454557  0.6108922298159610  0.5166046088310330
  0.6111267157433368  0.7776147129209190  0.5169592459241772
  0.4440755350696798  0.9447176696808401  0.5167319552878638
  0.6111251914405957  0.9445100806615088  0.5168941276289578
  0.7771039922024930  0.9448056097646639  0.5168183427634454
  0.9426520518423247  0.7796003539945202  0.5168514824706997
  0.9441542741858586  0.6109072886076526  0.5167969251679206
  0.8327372007594961  0.6678087056008460  0.4483054316639695
  0.6669385845210875  0.8337014165179678  0.4483738848443031
  0.7222692705404993  0.8887191183935306  0.3797883713880172
  0.8880462613962817  0.7229873591379807  0.3796574158847096
  0.9437107049980873  0.7781780965453552  0.3114096340789160
  0.7779314115758771  0.9440319610582550  0.3113371627743470
  0.9439537386971528  0.9446380277661945  0.3111665894524293
  0.8879903487077027  0.8889340452664830  0.3796099757495089
  0.8322976403795082  0.8338670366090710  0.4482536878017520
  0.7775085423558260  0.7779154139754053  0.5167621512190190
  0.7826361060056687  0.4416753537077236  0.5187050772877899
  0.6781399836727721  0.4998521349367403  0.4495464118951910
  0.8386092998712801  0.3306245006675342  0.4489259436862578
  0.8886318086565355  0.3891383889311928  0.3799491704456138
  0.7244389721052658  0.5572321903422169  0.3790941315150857
  0.7779375635175458  0.6116412759989798  0.3110303186347910
  0.6117165057138584  0.7781170028541859  0.3112977372042592
  0.6666635640744123  0.8333000569094318  0.2431489606021912
  0.8331777569872340  0.6668311810856309  0.2431536496727577
  0.8887198377069053  0.7223785256907871  0.1750259717980220
  0.7223444156565343  0.8887810598412825  0.1750132043335566
  0.7777849271868497  0.9443951475975012  0.1067158311782563
  0.9444513650102317  0.7777688595591646  0.1067638146118490
  0.9444881821416635  0.9444624796832026  0.1067349733706118
  0.8888091639366359  0.8887966300448004  0.1750247199100785
  0.8329632132303771  0.8334865287655764  0.2431569828295645
  0.7777428428172861  0.7780479845723638  0.3113270170540022
  0.7228382914064621  0.7232369744011872  0.3795762889703652
  0.6679551740968094  0.6689325801459464  0.4482098399570970
  0.5573585932627674  0.7240272618954298  0.3793921803062294
  0.5012271802300601  0.8346651031362443  0.4483718850306408
  0.3330437162123068  0.8425012251617281  0.4488373157067831
  0.2733403479572449  0.7851179164879263  0.5199153634204690
  0.1091957861071030  0.9491686861158898  0.5179527002888499
  0.2759784338397557  0.9475420226810537  0.5183274396794730
  0.4429659979166479  0.7785468087613432  0.5173017988786954
  0.5041785226901773  0.6693654068557692  0.4473815885683741
  0.6120343009831246  0.6096788175457130  0.5175274933556673
  0.6115529027736161  0.9439910032005177  0.3112433354000853
  0.4449797321135384  0.9444674240200279  0.3109571081080774
  0.3904819500286621  0.8911576246674315  0.3790734843340566
  0.3903502169756556  0.7260262478264086  0.3786729325436049
  0.2183880178167144  0.7247034822692711  0.3791038646521742
  0.0532475234712043  0.8904560446397426  0.3793668981190984
 -0.0017259122224849  0.8339522274375243  0.4481059069289025
  0.1687499310561525  0.6653615266711158  0.4492206774702084
  0.2672049888890608  0.6430164740059748  0.5451526349675531
  0.1032963768478990  0.6132283426823648  0.5179632808095690
  0.2791243280155357  0.4344632634827804  0.5170225740276728
  0.4447156135163335  0.2762892224622326  0.5169420658210659
  0.6115367609469003  0.1107372859497380  0.5170217007431120
  0.6688308191088068  0.1622572540431237  0.4483468594803354
  0.8333287574522489  0.9988925609253222  0.4482002280068023
  0.8892206006548462  0.0543510426200692  0.3793589228026197
  0.7251136958596441  0.2174305698901572  0.3789223523190521
  0.7775401554437491  0.2781843773164035  0.3116511444321951
  0.6115699607978300  0.4443498421624068  0.3109055945576537
  0.6669948932029847  0.4999740537021606  0.2430517283716613
  0.4999607158210770  0.6667337216516719  0.2428699363320155
  0.5556563901468630  0.7221351495547748  0.1749911038159552
  0.3887986116772519  0.8888678790641046  0.1750308413032824
  0.3332523456559707  0.8336351343341428  0.2430429490378295
  0.2774063790883161  0.7782573045404548  0.3109794411920095
  0.1112819536376487  0.9443566719797259  0.3115782765041139
  0.2776287386020009  0.9444314865252801  0.3115940912989246
  0.2227876736198160  0.8881684999021341  0.3805884388909583
  0.1598852822838622  0.8407293396500854  0.4492536982321952
  0.1039023061320895  0.7880006750903864  0.5182842771005192
  0.9437363245075556  0.6115528979436075  0.3111330181064840
  0.9444712106789749  0.4444042858451687  0.3115595542224436
  0.9443956952841641  0.2777789955599004  0.3115719153784892
  0.9444459678769802  0.1111440817476650  0.3115533684030481
  0.8333955871116127  0.1667064457428570  0.2432465644223503
  0.6668412695903346  0.1662082038574855  0.2428887155783328
  0.5001181488985452  0.3334113194236255  0.2424287730552348
  0.5556977197640531  0.3889066117946941  0.1749409464944993
  0.3888135085973993  0.5556465665825977  0.1749727494101714
  0.4444050261823286  0.6110882065436136  0.1067803462411332
  0.6110997468151345  0.4444606623241784  0.1067880098757542
  0.7778938518010633  0.2777878067356953  0.1067203377369086
  0.7222561601486474  0.2221224175342895  0.1750167770768351
  0.7222533925693658  0.0555813085924961  0.1750081932935891
  0.8888424295602877  0.0555812314361230  0.1750368816977383
  0.8332837798429058  0.9999319459886933  0.2431058587375183
  0.7781508897754517  0.1102312405679020  0.3109686072142175
  0.6125476802428730  0.1089503067008323  0.3110486922628007
  0.5567110489912076  0.0534045009040853  0.3795523174370586
  0.5010560004514896  0.9990371199070537  0.4482695593717029
  0.3329280781588477  0.1639794368650514  0.4487127991005114
  0.1658803862770629  0.3312256476498830  0.4488665402293118
  0.9978173795581665  0.5003612306641725  0.4485075226031825
  0.0529288631257048  0.5570046028096435  0.3790737254885604
  0.2239870613116490  0.3875278431328781  0.3796461115722913
  0.2782790539403162  0.4437157086681222  0.3107972395498192
  0.1096912022673463  0.6123792264451121  0.3108689623224716
  0.1667758698445516  0.6667732360442011  0.2429557033958848
 -0.0004709510394504  0.8334972606739071  0.2430591588711338
  0.0556048420354386  0.8888105395809688  0.1750602809223278
  0.2221940282430886  0.7221507041884380  0.1750083405389773
  0.2778570427474433  0.7777466964037196  0.1067729444778622
  0.1111153727918655  0.9445174522042473  0.1067262660510294
  0.2777273326270012  0.9445137791012806  0.1066997638894620
  0.4444455859309662  0.9444086565815322  0.1067266135170157
  0.6110549427516498  0.7777647105169416  0.1067612516327359
  0.7777892017916945  0.6110579511393606  0.1067623866682211
  0.7222135518907640  0.5556254150872501  0.1750223861594723
  0.8333744486162300  0.4999808693764681  0.2432146142698378
  0.8888134210148799  0.3887877271776470  0.1750300810210283
  0.8332491524293869  0.3334078746420433  0.2432952495846410
  0.7224226429681803  0.3887791891661519  0.1750106060666468
  0.6669668289283369  0.3331877407887330  0.2430286680118413
  0.6116100875061554  0.2756933233105382  0.3101663299273125
  0.5576563851219851  0.2175973114254005  0.3791474632496842
  0.4458310186648518  0.2751854387480219  0.3102856936285542
  0.3890377509222705  0.3860633145433029  0.3804595598487936
  0.5041976484231245  0.3271192724216966  0.4473533981153121
  0.3399003287143716  0.4896943796393524  0.4475342543102965
  0.3910048119007897  0.5552981734617181  0.3820298965623742
  0.4442495327048847  0.6110403719092220  0.3114415422126845
  0.2788663209027790  0.6106113796213481  0.3117182316781688
  0.3330869277594453  0.5001746933824942  0.2427303831194630
  0.1660092243160032  0.5001799128789188  0.2428236989949585
  0.9999012938303909  0.5000048564789598  0.2432192810678456
  0.1666072944725741  0.3333280327532023  0.2432828906219518
  0.2221984811750774  0.3888585724215021  0.1748933443677399
  0.3887542208548408  0.2222934587720758  0.1748492382293283
  0.5557650324606995  0.0551713941313173  0.1748636602034178
  0.5002220566866918  0.9995296188043781  0.2429465889263311
  0.3332101755346228  0.1667493676986924  0.2432035715911394
  0.2778947250058313  0.2779217628791238  0.3115654908931273
  0.1112246941554199  0.2777091105770800  0.3116137095865688
  0.0555202447589341  0.2223219356201624  0.3799541260236042
  0.0009173809204127  0.1665810996064130  0.4484595404844919
  0.1646856498325882  0.0035666827466479  0.4487574811341283
  0.2222341099569336  0.0555423179987168  0.3799852621133725
  0.2775712508361686  0.1112481398572173  0.3115486400607156
  0.3897949724814627  0.0546002688562185  0.3793225439472016
  0.3907817717250469  0.2182900881253218  0.3791820575058120
  0.5010929138022553  0.1636749466568983  0.4482808672612666
  0.4436092061379226  0.1117260755301200  0.5167120153905395
  0.2765505121316752  0.1111873228725687  0.5176826649720232
  0.1107432892184958  0.2766946876006591  0.5174348633003966
  0.2757781346415885  0.2781185577865102  0.5177936604288699
  0.1087161579444073  0.4416167985356853  0.5179104596738080
  0.1613012290479278  0.4955093182557370  0.4459577416314637
  0.3339378898946206  0.3298891489670782  0.4478469072437851
  0.5003450834229153  0.5002895347300154  0.2427111195395034
  0.4437852525208293  0.4449214634664548  0.3112142918537472
  0.7234057103889907  0.0533135181017387  0.3796605508678376
  0.6672222991428413 -0.0012607322507689  0.4483818073339189
  0.8387079369220105  0.4999745406478968  0.4484402972253180
  0.8887517278816867  0.5565317155947985  0.3794304813469804
  0.4443587453964944  0.7777731159015258  0.1067884361125939
  0.3887961213526585  0.7223917996977373  0.1750124558287836
  0.3333153190020639  0.6668921097502353  0.2429729472918989
  0.1664205669579087  0.8336096604228342  0.2430665665114889
  0.1098512943098899  0.7779272225364986  0.3108943678227797
  0.0550789645202352  0.7223991255472350  0.3804899616749559
 -0.0021934300720485  0.6681497971344365  0.4480982346650634
  0.6111233877092451  0.6110409776606676  0.1067604758300675
  0.5556797695006298  0.5556233060396746  0.1749792876849811
  0.2223604947066136  0.8888062993701565  0.1750050011109593
  0.7778783657461167  0.4443378720412691  0.1067327388165706
  0.9444646553810302  0.4443795009195332  0.1066883687166132
  0.9445367980142421  0.6110462092010632  0.1067360086313909
  0.8888418603741094  0.5555752974959788  0.1750371504360697
  0.7222463533515320  0.7220900124950829  0.1750056477068572
  0.6666946617275115  0.6670099373626625  0.2429932562805980
  0.6116123038184577  0.6122501866540101  0.3105663608960852
  0.5599157234309702  0.5562055787336432  0.3789725676341553
  0.5357153046064488  0.4749685198996813  0.4471031022177517
  0.5593716342011417  0.3815045177652271  0.3778135303303647
  0.7207493670662178  0.3895073571505993  0.3811107342676534
  0.6809997272415578  0.3192700413890805  0.4493065342757671
  0.6132826637570374  0.2767656993408275  0.5171972494717862
  0.7777146727395692  0.1117918735476565  0.5167208076224056
  0.8407513695508400  0.1594538984021064  0.4483832201908539
  0.8886277223971932  0.2223582912565543  0.3799559402553913
  0.9444500987994549  0.2777468811433573  0.1066821919644508
  0.9444844991253876  0.1111427471956990  0.1066760868040056
  0.8888234306281658  0.2223767040775524  0.1750560650384916
  0.5003490947861521  0.8334614985839989  0.2429869631383028
  0.4455304420261368  0.7785345711216273  0.3104392566334056
  0.7778009521721662  0.7778300831063515  0.1067539864839183
  0.6111355808700916  0.9444179106494974  0.1067257087287444
  0.5555974494825169  0.8887650373725792  0.1750181564418419
  0.7778247197104836  0.1111667102285328  0.1067748507615075
  0.6110974997456236  0.1111888192709360  0.1067748482641546
  0.4443113616371717  0.2779059564454541  0.1067314714949407
  0.2778403568738690  0.4444414016576936  0.1067525732992083
  0.1112386248883350  0.6109970424035518  0.1067689693957823
  0.0554932446337910  0.5556154813758163  0.1750181297762217
  0.0556691426811055  0.7221746065399997  0.1749472271114587
 -0.0007131390513952  0.6671860089286782  0.2429122503123110
  0.6111677008800653  0.2778324955837714  0.1067405423265227
  0.5557835848196291  0.2221530134780386  0.1747807833009758
  0.5010422101463279  0.1646037415583557  0.2422007271505338
  0.4451814754784467  0.1092388692309844  0.3107723441227434
  0.3887555148827295  0.3888680367018992  0.1748701008867060
  0.3328310131991050  0.3332679991071149  0.2426017419066901
  0.4444430922617675  0.4445178475611156  0.1067896566379959
  0.2778166662972268  0.6111331811740123  0.1067501768640495
  0.2221305248712042  0.5557128177437285  0.1749571033797453
  0.1112201739821641  0.7777663816874236  0.1067791527282009
  0.6670008751475701 -0.0004634719961793  0.2430732506515843
  0.7777149355779639  0.4442638280108808  0.3116535951718514
  0.1113235552693494  0.4444893221128508  0.3115730638833196
  0.0558026468417484  0.3890687354067297  0.3799573521317198
  0.0006151088771149  0.3326096746594706  0.4484959870707651
  0.1657000482664561  0.1670937068612107  0.4484488314168212
  0.1104627146217402  0.1124899059151223  0.5174471469168741
  0.5565491681218435  0.8892086616902162  0.3796180913067162
  0.2218336443891638  0.5541949425670257  0.3796519096646763
  0.2224239352734379  0.2222304559738650  0.3800730884084501
  0.3158608787635022  0.6991440365656991  0.4473686879484647
  0.3329874784691137  0.0031546718325681  0.4484571035240003
  0.4553378181156169  0.4347326781415730  0.5170363788994488
  0.1110964762411977  0.4443883615431313  0.1067470028301657
  0.1110771555472691  0.2778010415324965  0.1067322069995737
  0.0556735596592307  0.2221659298974556  0.1750085768369216
  0.0000486615288280  0.1666790280950471  0.2432603210896548
  0.1667391863464117  0.9999527490569451  0.2432755981745902
  0.2221434214517819  0.0556593716974396  0.1750221798005936
  0.2776885174186758  0.1111435563965698  0.1067200194528001
  0.3887672512765288  0.0555901407854225  0.1750217506372957
  0.3332829640884296  0.0000362948504931  0.2432179364400444
  0.1667277724528660  0.1666500714742850  0.2432282126905978
  0.1111780209163663  0.1111815193887225  0.3115704967895387
  0.0556313807080844  0.0554124339031138  0.3798916844058005
  0.9985726956912501  0.0014717253641631  0.4483566036748568
  0.2777026859871699  0.2777613428581591  0.1067042856007650
  0.2221372205731068  0.2221943850670739  0.1750531947991756
  0.0555564370713960  0.3888402116776442  0.1750752160041239
  0.0000250597626362  0.3332664748201006  0.2432583118827904
  0.4443396470786484  0.1111578511843901  0.1067034294503931
  0.1110804885343566  0.1111107724116471  0.1067288838221105
  0.0555782903340813  0.0555763608562108  0.1750404276024795
 -0.0000290610568626  0.0000742558211782  0.2432206609908215
  0.9419951846167743  0.9468913029586341  0.5166746947340062
  0.3998827632697967  0.5666389359370039  0.4583733385923112
  0.2377940111326118  0.5695805311222764  0.5055842533162592
 
  0.00000000E+00  0.00000000E+00  0.00000000E+00
  0.00000000E+00  0.00000000E+00  0.00000000E+00
  0.00000000E+00  0.00000000E+00  0.00000000E+00
  0.00000000E+00  0.00000000E+00  0.00000000E+00
  0.00000000E+00  0.00000000E+00  0.00000000E+00
  0.00000000E+00  0.00000000E+00  0.00000000E+00
  0.00000000E+00  0.00000000E+00  0.00000000E+00
  0.00000000E+00  0.00000000E+00  0.00000000E+00
  0.00000000E+00  0.00000000E+00  0.00000000E+00
  0.00000000E+00  0.00000000E+00  0.00000000E+00
  0.00000000E+00  0.00000000E+00  0.00000000E+00
  0.00000000E+00  0.00000000E+00  0.00000000E+00
  0.00000000E+00  0.00000000E+00  0.00000000E+00
  0.00000000E+00  0.00000000E+00  0.00000000E+00
  0.00000000E+00  0.00000000E+00  0.00000000E+00
  0.00000000E+00  0.00000000E+00  0.00000000E+00
  0.00000000E+00  0.00000000E+00  0.00000000E+00
  0.00000000E+00  0.00000000E+00  0.00000000E+00
  0.00000000E+00  0.00000000E+00  0.00000000E+00
  0.00000000E+00  0.00000000E+00  0.00000000E+00
  0.00000000E+00  0.00000000E+00  0.00000000E+00
  0.00000000E+00  0.00000000E+00  0.00000000E+00
  0.00000000E+00  0.00000000E+00  0.00000000E+00
  0.00000000E+00  0.00000000E+00  0.00000000E+00
  0.00000000E+00  0.00000000E+00  0.00000000E+00
  0.00000000E+00  0.00000000E+00  0.00000000E+00
  0.00000000E+00  0.00000000E+00  0.00000000E+00
  0.00000000E+00  0.00000000E+00  0.00000000E+00
  0.00000000E+00  0.00000000E+00  0.00000000E+00
  0.00000000E+00  0.00000000E+00  0.00000000E+00
  0.00000000E+00  0.00000000E+00  0.00000000E+00
  0.00000000E+00  0.00000000E+00  0.00000000E+00
  0.00000000E+00  0.00000000E+00  0.00000000E+00
  0.00000000E+00  0.00000000E+00  0.00000000E+00
  0.00000000E+00  0.00000000E+00  0.00000000E+00
  0.00000000E+00  0.00000000E+00  0.00000000E+00
  0.00000000E+00  0.00000000E+00  0.00000000E+00
  0.00000000E+00  0.00000000E+00  0.00000000E+00
  0.00000000E+00  0.00000000E+00  0.00000000E+00
  0.00000000E+00  0.00000000E+00  0.00000000E+00
  0.00000000E+00  0.00000000E+00  0.00000000E+00
  0.00000000E+00  0.00000000E+00  0.00000000E+00
  0.00000000E+00  0.00000000E+00  0.00000000E+00
  0.00000000E+00  0.00000000E+00  0.00000000E+00
  0.00000000E+00  0.00000000E+00  0.00000000E+00
  0.00000000E+00  0.00000000E+00  0.00000000E+00
  0.00000000E+00  0.00000000E+00  0.00000000E+00
  0.00000000E+00  0.00000000E+00  0.00000000E+00
  0.00000000E+00  0.00000000E+00  0.00000000E+00
  0.00000000E+00  0.00000000E+00  0.00000000E+00
  0.00000000E+00  0.00000000E+00  0.00000000E+00
  0.00000000E+00  0.00000000E+00  0.00000000E+00
  0.00000000E+00  0.00000000E+00  0.00000000E+00
  0.00000000E+00  0.00000000E+00  0.00000000E+00
  0.00000000E+00  0.00000000E+00  0.00000000E+00
  0.00000000E+00  0.00000000E+00  0.00000000E+00
  0.00000000E+00  0.00000000E+00  0.00000000E+00
  0.00000000E+00  0.00000000E+00  0.00000000E+00
  0.00000000E+00  0.00000000E+00  0.00000000E+00
  0.00000000E+00  0.00000000E+00  0.00000000E+00
  0.00000000E+00  0.00000000E+00  0.00000000E+00
  0.00000000E+00  0.00000000E+00  0.00000000E+00
  0.00000000E+00  0.00000000E+00  0.00000000E+00
  0.00000000E+00  0.00000000E+00  0.00000000E+00
  0.00000000E+00  0.00000000E+00  0.00000000E+00
  0.00000000E+00  0.00000000E+00  0.00000000E+00
  0.00000000E+00  0.00000000E+00  0.00000000E+00
  0.00000000E+00  0.00000000E+00  0.00000000E+00
  0.00000000E+00  0.00000000E+00  0.00000000E+00
  0.00000000E+00  0.00000000E+00  0.00000000E+00
  0.00000000E+00  0.00000000E+00  0.00000000E+00
  0.00000000E+00  0.00000000E+00  0.00000000E+00
  0.00000000E+00  0.00000000E+00  0.00000000E+00
  0.00000000E+00  0.00000000E+00  0.00000000E+00
  0.00000000E+00  0.00000000E+00  0.00000000E+00
  0.00000000E+00  0.00000000E+00  0.00000000E+00
  0.00000000E+00  0.00000000E+00  0.00000000E+00
  0.00000000E+00  0.00000000E+00  0.00000000E+00
  0.00000000E+00  0.00000000E+00  0.00000000E+00
  0.00000000E+00  0.00000000E+00  0.00000000E+00
  0.00000000E+00  0.00000000E+00  0.00000000E+00
  0.00000000E+00  0.00000000E+00  0.00000000E+00
  0.00000000E+00  0.00000000E+00  0.00000000E+00
  0.00000000E+00  0.00000000E+00  0.00000000E+00
  0.00000000E+00  0.00000000E+00  0.00000000E+00
  0.00000000E+00  0.00000000E+00  0.00000000E+00
  0.00000000E+00  0.00000000E+00  0.00000000E+00
  0.00000000E+00  0.00000000E+00  0.00000000E+00
  0.00000000E+00  0.00000000E+00  0.00000000E+00
  0.00000000E+00  0.00000000E+00  0.00000000E+00
  0.00000000E+00  0.00000000E+00  0.00000000E+00
  0.00000000E+00  0.00000000E+00  0.00000000E+00
  0.00000000E+00  0.00000000E+00  0.00000000E+00
  0.00000000E+00  0.00000000E+00  0.00000000E+00
  0.00000000E+00  0.00000000E+00  0.00000000E+00
  0.00000000E+00  0.00000000E+00  0.00000000E+00
  0.00000000E+00  0.00000000E+00  0.00000000E+00
  0.00000000E+00  0.00000000E+00  0.00000000E+00
  0.00000000E+00  0.00000000E+00  0.00000000E+00
  0.00000000E+00  0.00000000E+00  0.00000000E+00
  0.00000000E+00  0.00000000E+00  0.00000000E+00
  0.00000000E+00  0.00000000E+00  0.00000000E+00
  0.00000000E+00  0.00000000E+00  0.00000000E+00
  0.00000000E+00  0.00000000E+00  0.00000000E+00
  0.00000000E+00  0.00000000E+00  0.00000000E+00
  0.00000000E+00  0.00000000E+00  0.00000000E+00
  0.00000000E+00  0.00000000E+00  0.00000000E+00
  0.00000000E+00  0.00000000E+00  0.00000000E+00
  0.00000000E+00  0.00000000E+00  0.00000000E+00
  0.00000000E+00  0.00000000E+00  0.00000000E+00
  0.00000000E+00  0.00000000E+00  0.00000000E+00
  0.00000000E+00  0.00000000E+00  0.00000000E+00
  0.00000000E+00  0.00000000E+00  0.00000000E+00
  0.00000000E+00  0.00000000E+00  0.00000000E+00
  0.00000000E+00  0.00000000E+00  0.00000000E+00
  0.00000000E+00  0.00000000E+00  0.00000000E+00
  0.00000000E+00  0.00000000E+00  0.00000000E+00
  0.00000000E+00  0.00000000E+00  0.00000000E+00
  0.00000000E+00  0.00000000E+00  0.00000000E+00
  0.00000000E+00  0.00000000E+00  0.00000000E+00
  0.00000000E+00  0.00000000E+00  0.00000000E+00
  0.00000000E+00  0.00000000E+00  0.00000000E+00
  0.00000000E+00  0.00000000E+00  0.00000000E+00
  0.00000000E+00  0.00000000E+00  0.00000000E+00
  0.00000000E+00  0.00000000E+00  0.00000000E+00
  0.00000000E+00  0.00000000E+00  0.00000000E+00
  0.00000000E+00  0.00000000E+00  0.00000000E+00
  0.00000000E+00  0.00000000E+00  0.00000000E+00
  0.00000000E+00  0.00000000E+00  0.00000000E+00
  0.00000000E+00  0.00000000E+00  0.00000000E+00
  0.00000000E+00  0.00000000E+00  0.00000000E+00
  0.00000000E+00  0.00000000E+00  0.00000000E+00
  0.00000000E+00  0.00000000E+00  0.00000000E+00
  0.00000000E+00  0.00000000E+00  0.00000000E+00
  0.00000000E+00  0.00000000E+00  0.00000000E+00
  0.00000000E+00  0.00000000E+00  0.00000000E+00
  0.00000000E+00  0.00000000E+00  0.00000000E+00
  0.00000000E+00  0.00000000E+00  0.00000000E+00
  0.00000000E+00  0.00000000E+00  0.00000000E+00
  0.00000000E+00  0.00000000E+00  0.00000000E+00
  0.00000000E+00  0.00000000E+00  0.00000000E+00
  0.00000000E+00  0.00000000E+00  0.00000000E+00
  0.00000000E+00  0.00000000E+00  0.00000000E+00
  0.00000000E+00  0.00000000E+00  0.00000000E+00
  0.00000000E+00  0.00000000E+00  0.00000000E+00
  0.00000000E+00  0.00000000E+00  0.00000000E+00
  0.00000000E+00  0.00000000E+00  0.00000000E+00
  0.00000000E+00  0.00000000E+00  0.00000000E+00
  0.00000000E+00  0.00000000E+00  0.00000000E+00
  0.00000000E+00  0.00000000E+00  0.00000000E+00
  0.00000000E+00  0.00000000E+00  0.00000000E+00
  0.00000000E+00  0.00000000E+00  0.00000000E+00
  0.00000000E+00  0.00000000E+00  0.00000000E+00
  0.00000000E+00  0.00000000E+00  0.00000000E+00
  0.00000000E+00  0.00000000E+00  0.00000000E+00
  0.00000000E+00  0.00000000E+00  0.00000000E+00
  0.00000000E+00  0.00000000E+00  0.00000000E+00
  0.00000000E+00  0.00000000E+00  0.00000000E+00
  0.00000000E+00  0.00000000E+00  0.00000000E+00
  0.00000000E+00  0.00000000E+00  0.00000000E+00
  0.00000000E+00  0.00000000E+00  0.00000000E+00
  0.00000000E+00  0.00000000E+00  0.00000000E+00
  0.00000000E+00  0.00000000E+00  0.00000000E+00
  0.00000000E+00  0.00000000E+00  0.00000000E+00
  0.00000000E+00  0.00000000E+00  0.00000000E+00
  0.00000000E+00  0.00000000E+00  0.00000000E+00
  0.00000000E+00  0.00000000E+00  0.00000000E+00
  0.00000000E+00  0.00000000E+00  0.00000000E+00
  0.00000000E+00  0.00000000E+00  0.00000000E+00
  0.00000000E+00  0.00000000E+00  0.00000000E+00
  0.00000000E+00  0.00000000E+00  0.00000000E+00
  0.00000000E+00  0.00000000E+00  0.00000000E+00
  0.00000000E+00  0.00000000E+00  0.00000000E+00
  0.00000000E+00  0.00000000E+00  0.00000000E+00
  0.00000000E+00  0.00000000E+00  0.00000000E+00
  0.00000000E+00  0.00000000E+00  0.00000000E+00
  0.00000000E+00  0.00000000E+00  0.00000000E+00
  0.00000000E+00  0.00000000E+00  0.00000000E+00
  0.00000000E+00  0.00000000E+00  0.00000000E+00
  0.00000000E+00  0.00000000E+00  0.00000000E+00
  0.00000000E+00  0.00000000E+00  0.00000000E+00
  0.00000000E+00  0.00000000E+00  0.00000000E+00
  0.00000000E+00  0.00000000E+00  0.00000000E+00
  0.00000000E+00  0.00000000E+00  0.00000000E+00
  0.00000000E+00  0.00000000E+00  0.00000000E+00
  0.00000000E+00  0.00000000E+00  0.00000000E+00
  0.00000000E+00  0.00000000E+00  0.00000000E+00
  0.00000000E+00  0.00000000E+00  0.00000000E+00
  0.00000000E+00  0.00000000E+00  0.00000000E+00
  0.00000000E+00  0.00000000E+00  0.00000000E+00
  0.00000000E+00  0.00000000E+00  0.00000000E+00
  0.00000000E+00  0.00000000E+00  0.00000000E+00
  0.00000000E+00  0.00000000E+00  0.00000000E+00
  0.00000000E+00  0.00000000E+00  0.00000000E+00
  0.00000000E+00  0.00000000E+00  0.00000000E+00
  0.00000000E+00  0.00000000E+00  0.00000000E+00
  0.00000000E+00  0.00000000E+00  0.00000000E+00
  0.00000000E+00  0.00000000E+00  0.00000000E+00
  0.00000000E+00  0.00000000E+00  0.00000000E+00
  0.00000000E+00  0.00000000E+00  0.00000000E+00
  0.00000000E+00  0.00000000E+00  0.00000000E+00
  0.00000000E+00  0.00000000E+00  0.00000000E+00
  0.00000000E+00  0.00000000E+00  0.00000000E+00
  0.00000000E+00  0.00000000E+00  0.00000000E+00
  0.00000000E+00  0.00000000E+00  0.00000000E+00
  0.00000000E+00  0.00000000E+00  0.00000000E+00
  0.00000000E+00  0.00000000E+00  0.00000000E+00
  0.00000000E+00  0.00000000E+00  0.00000000E+00
  0.00000000E+00  0.00000000E+00  0.00000000E+00
  0.00000000E+00  0.00000000E+00  0.00000000E+00
  0.00000000E+00  0.00000000E+00  0.00000000E+00
  0.00000000E+00  0.00000000E+00  0.00000000E+00
  0.00000000E+00  0.00000000E+00  0.00000000E+00
  0.00000000E+00  0.00000000E+00  0.00000000E+00
  0.00000000E+00  0.00000000E+00  0.00000000E+00
  0.00000000E+00  0.00000000E+00  0.00000000E+00
  0.00000000E+00  0.00000000E+00  0.00000000E+00
  0.00000000E+00  0.00000000E+00  0.00000000E+00
  0.00000000E+00  0.00000000E+00  0.00000000E+00
  0.00000000E+00  0.00000000E+00  0.00000000E+00
  0.00000000E+00  0.00000000E+00  0.00000000E+00
  0.00000000E+00  0.00000000E+00  0.00000000E+00
  0.00000000E+00  0.00000000E+00  0.00000000E+00
  0.00000000E+00  0.00000000E+00  0.00000000E+00
  0.00000000E+00  0.00000000E+00  0.00000000E+00
  0.00000000E+00  0.00000000E+00  0.00000000E+00
  0.00000000E+00  0.00000000E+00  0.00000000E+00
  0.00000000E+00  0.00000000E+00  0.00000000E+00
  0.00000000E+00  0.00000000E+00  0.00000000E+00
  0.00000000E+00  0.00000000E+00  0.00000000E+00
  0.00000000E+00  0.00000000E+00  0.00000000E+00
  0.00000000E+00  0.00000000E+00  0.00000000E+00
  0.00000000E+00  0.00000000E+00  0.00000000E+00
  0.00000000E+00  0.00000000E+00  0.00000000E+00
  0.00000000E+00  0.00000000E+00  0.00000000E+00
  0.00000000E+00  0.00000000E+00  0.00000000E+00
  0.00000000E+00  0.00000000E+00  0.00000000E+00
  0.00000000E+00  0.00000000E+00  0.00000000E+00
  0.00000000E+00  0.00000000E+00  0.00000000E+00
  0.00000000E+00  0.00000000E+00  0.00000000E+00
  0.00000000E+00  0.00000000E+00  0.00000000E+00
  0.00000000E+00  0.00000000E+00  0.00000000E+00
  0.00000000E+00  0.00000000E+00  0.00000000E+00
  0.00000000E+00  0.00000000E+00  0.00000000E+00
  0.00000000E+00  0.00000000E+00  0.00000000E+00
  0.00000000E+00  0.00000000E+00  0.00000000E+00
  0.00000000E+00  0.00000000E+00  0.00000000E+00
  0.00000000E+00  0.00000000E+00  0.00000000E+00
  0.00000000E+00  0.00000000E+00  0.00000000E+00
  0.00000000E+00  0.00000000E+00  0.00000000E+00
  0.00000000E+00  0.00000000E+00  0.00000000E+00
  0.00000000E+00  0.00000000E+00  0.00000000E+00
  0.00000000E+00  0.00000000E+00  0.00000000E+00
  0.00000000E+00  0.00000000E+00  0.00000000E+00
