Al  O                                   
    1.000000000000000     
    14.4150840000000002    0.0000000000000000    0.0000000000000000
    -7.2075420000000001   12.4838279999999990    0.0000000000000000
     0.0000000000000000    0.0000000000000000   32.5162539999999964
   Al   O 
   108   226
Direct
  0.0000000000000000  0.0000000000000000  0.0587846048818378
  0.1111357719974018  0.2222411107411633  0.0298661099584120
  0.1110577096375356  0.2223279972527774  0.1262192589598970
  0.2222737867867025  0.1111382205962422  0.0685326955881876
  0.2223233393172585  0.1112896143836012  0.1906600262161911
  0.0000000000000000  0.0000000000000000  0.1397135931512559
  0.0000000000000000  0.0000000000000000  0.2560766517889549
  0.1114080334412201  0.2226798831749720  0.2071302390699504
  0.1118864091491777  0.2194808446090067  0.3296951028462001
  0.2226249055488360  0.1112669272061100  0.2725031035162538
  0.2178891883271676  0.1029085078548121  0.3807258605067180
  0.0000000000000000  0.0000000000000000  0.3348968263369994
  0.0000438153981575  0.3333552455609825  0.0588764107368214
  0.1111006873873424  0.5555336435550854  0.0299133823770119
  0.1112645784067716  0.5557174521336031  0.1261357532448930
  0.2223033200907515  0.4444748553949255  0.0685676138153460
  0.2220583533324021  0.4442364308345735  0.1908658372277732
  0.0000671154705367  0.3332223013851996  0.1397041989636786
  0.0006329248403464  0.3337144646354605  0.2579114904468701
  0.1109158783996088  0.5557463012355917  0.2074082675764498
  0.1120871990123550  0.5516500294821264  0.3281655765094630
  0.2224440316170726  0.4445270181266676  0.2724990843003581
  0.2244038890536697  0.4372102208176440  0.3771497373948178
 -0.0005186982085928  0.3290335673504816  0.3371646148200084
  0.0000214769513535  0.6666215994950893  0.0588560492545845
  0.1111050054104291  0.8888642280025987  0.0298661099584120
  0.1112699542819093  0.8889422903624642  0.1262192589598970
  0.2221718686375066  0.7776966799092484  0.0685676138153460
  0.2221784108355038  0.7779416466675978  0.1908658372277732
 -0.0001853170014507  0.6667298167437449  0.1396847038140554
 -0.0005525476786278  0.6658878972020114  0.2582973296804179
  0.1112715164004193  0.8885919665587799  0.2071302390699504
  0.1075941021264965  0.8881135908508223  0.3296951028462001
  0.2220833198429275  0.7775559683829274  0.2724990843003581
  0.2128066650973067  0.7755961109463306  0.3771497373948178
  0.0001633216259003  0.6702029443389462  0.3375456729653217
  0.3333114301628253 -0.0000438153981575  0.0588764107368214
  0.4445030180851541  0.2222179231224339  0.0299936701479444
  0.4443467539435560  0.2221249803526744  0.1261307454476240
  0.5555123822706389  0.1110877885584440  0.0686117474494105
  0.5554867886449700  0.1109339517175664  0.1906822584058142
  0.3331551859146628 -0.0000671154705367  0.1397041989636786
  0.3330815397951139 -0.0006329248403464  0.2579114904468701
  0.4447372065959146  0.2228225052241418  0.2071788613487449
  0.4428700459202069  0.2202863384060422  0.3290528600137426
  0.5557096486224941  0.1112506063578739  0.2719947150113328
  0.5558646802958569  0.1116713493234060  0.3727660068913131
  0.3295522655590741  0.0005186982085928  0.3371646148200084
  0.3333784005049109  0.3333998774562643  0.0588560492545845
  0.4444663564449142  0.5555673771655820  0.0299133823770119
  0.4442825478663973  0.5555474596064942  0.1261357532448930
  0.5555757396211304  0.4444876177293611  0.0686117474494105
  0.5554474964059217  0.4445132113550300  0.1906822584058142
  0.3332701832562556  0.3330848662548050  0.1396847038140554
  0.3341121027979886  0.3335595551193609  0.2582973296804179
  0.4442536987644080  0.5551699104973423  0.2074082675764498
  0.4483499705178733  0.5604375028635539  0.3281655765094630
  0.5555412910687052  0.4442903513775061  0.2719947150113328
  0.5558070023608747  0.4441353197041432  0.3727660068913131
  0.3297970556610538  0.3299603772869540  0.3375456729653217
  0.3333333333333357  0.6666666666666643  0.0588941107095769
  0.4444326228344181  0.8888993126126576  0.0299133823770119
  0.4444525403935058  0.8887354215932280  0.1261357532448930
  0.5555251446050745  0.7778281313624934  0.0685676138153460
  0.5557635691654264  0.7778215891644958  0.1908658372277732
  0.3333333333333357  0.6666666666666643  0.1396639684753676
  0.3333333333333357  0.6666666666666643  0.2580132069243206
  0.4448300895026577  0.8890841216003912  0.2074082675764498
  0.4395624971364462  0.8879128009876449  0.3281655765094630
  0.5554729818733325  0.7779166801570726  0.2724990843003581
  0.5627897791823557  0.7871933349026933  0.3771497373948178
  0.3333333333333357  0.6666666666666643  0.3384848820301625
  0.6666001225437358 -0.0000214769513535  0.0588560492545845
  0.7777820768775663  0.2222854282960530  0.0299936701479444
  0.7778750196473256  0.2222221069242140  0.1261307454476240
  0.8888617794037578  0.1111352328571278  0.0685326955881876
  0.8887103856163984  0.1110333916003246  0.1906600262161911
  0.6669151337451951  0.0001853170014507  0.1396847038140554
  0.6664404448806391  0.0005525476786278  0.2582973296804179
  0.7771774947758584  0.2219150347051052  0.2071788613487449
  0.7797136615939581  0.2225840408474972  0.3290528600137426
  0.8887330727938899  0.1113576450093935  0.2725031035162538
  0.8970914921451880  0.1149803471390231  0.3807258605067180
  0.6700396227130464 -0.0001633216259003  0.3375456729653217
  0.6666666666666643  0.3333333333333357  0.0589209319579044
  0.7777145717039468  0.5554969819148458  0.0299936701479444
  0.7777778930757858  0.5556532460564440  0.1261307454476240
  0.8889122114415561  0.4444242603788696  0.0686117474494105
  0.8890660482824339  0.4445525035940781  0.1906822584058142
  0.6666666666666643  0.3333333333333357  0.1396133882187743
  0.6666666666666643  0.3333333333333357  0.2587360058671775
  0.7780849652948945  0.5552627934040851  0.2071788613487449
  0.7774159591525028  0.5571299540797930  0.3290528600137426
  0.8887493936421260  0.4444587089312947  0.2719947150113328
  0.8883286506765938  0.4441929976391253  0.3727660068913131
  0.6666666666666643  0.3333333333333357  0.3386665590172908
  0.6666447544390174  0.6666885698371748  0.0588764107368214
  0.7777588892588366  0.8888949945895709  0.0298661099584120
  0.7776720027472228  0.8887300457180906  0.1262192589598970
  0.8888647671428723  0.7777262132132975  0.0685326955881876
  0.8889666083996752  0.7776766606827420  0.1906600262161911
  0.6667776986148003  0.6668448140853372  0.1397041989636786
  0.6662855353645398  0.6669184602048862  0.2579114904468701
  0.7773201168250283  0.8887284835995806  0.2071302390699504
  0.7805191553909931  0.8924058978735032  0.3296951028462001
  0.8886423549906066  0.7773750944511642  0.2725031035162538
  0.8850196528609769  0.7821108116728321  0.3807258605067180
  0.6709664326495186  0.6704477344409256  0.3371646148200084
  0.1036038264903882  0.0001213519507626  0.0989975196342196
  0.2274860402718207  0.0091804147193774  0.0328352158460170
 -0.0001213519507626  0.1034824745396255  0.0989975196342196
  0.2299800894684422  0.2297156035772375  0.0989283472187656
  0.3242343836054683  0.2183326160481053  0.0328487925831271
  0.1150949670915789  0.1058507602977044  0.0327820017789752
  0.3250164603717932  0.1117292562744135  0.2323449845813839
  0.1111642287866248  0.1199678200352042  0.1661351003040398
  0.2226271885908882  0.2136439347873332  0.2318537589789274
  0.1214089510744289  0.0092985673581270  0.2312017961081766
  0.2133013454740813  0.3245029128751238  0.1659241873004405
  0.0090092313313062  0.2224949230573793  0.1660800071537319
  0.2217659424602041  0.2228182327724973  0.3644349578022177
  0.0014802293497394  0.2313970682864780  0.2979951767537197
  0.1050723982204232  0.3220165508254923  0.3646997396510563
  0.0087516141516246  0.1135964876258592  0.3611465459080276
  0.1027211923721402  0.1044238001907471  0.2969687151635503
  0.2299168389367387 -0.0014802293497394  0.2979951767537197
  0.1035647754687441  0.3336315810066189  0.0989765507720571
  0.2274990483602289  0.3425653321687354  0.0328335193940304
 -0.0003350289988914  0.4367160641277479  0.0989422959063823
  0.2300372217204163  0.5629676973971860  0.0989442045220444
  0.3241407886844442  0.5516593719781613  0.0328958550807937
  0.1150627676118466  0.4391751725943648  0.0328793186099312
  0.3247883785404621  0.4447664757869895  0.2325337765387224
  0.1111996319571929  0.4534055162597351  0.1659827102268813
  0.2223705019348140  0.5464314202403117  0.2322855374096486
  0.1203128168484767  0.3423170181385872  0.2321819102568842
  0.2130699212906567  0.6577260455569127  0.1660737751179136
  0.0089403463052709  0.5555572575618859  0.1660537411900303
  0.2210084156647842  0.5528515800145165  0.3640916406590464
 -0.0009657599984090  0.5618777471306216  0.2985500505712622
  0.1047105699901562  0.6522252389308354  0.3603993144081130
  0.0072191441665516  0.4439294013711236  0.3647558639756915
  0.1021861573080321  0.4356313657869172  0.2986390408809268
  0.2294161338327740  0.3320383342278099  0.3000964028825740
  0.1037327501966967  0.6670402705454109  0.0989036865180689
  0.2275189166270571  0.6758592113155559  0.0328958550807937
 -0.0002644858912048  0.7700199105315576  0.0989283472187656
  0.2300668055378748  0.8964352245312560  0.0989765507720571
  0.3241127383158505  0.8849372323881534  0.0328793186099312
  0.1150666171418389  0.7725009516397711  0.0328335193940304
  0.3240612516388373  0.7776294980651862  0.2322855374096486
  0.1112012340677102  0.7866986545259188  0.1659241873004405
  0.2220045346234430  0.8796871831515232  0.2321819102568842
  0.1199784305798598  0.6752116214595381  0.2325337765387224
  0.2134853583927406  0.9909907686686934  0.1660800071537319
  0.0088032579152469  0.8888357712133752  0.1661351003040398
  0.2169438192717365  0.8949276017795771  0.3646997396510563
  0.0017026078186070  0.8972788076278596  0.2969687151635503
  0.1048445401409021  0.9912483858483752  0.3611465459080276
  0.0010519569789607  0.7782340575397958  0.3644349578022177
  0.1026222003950359  0.7705838661672260  0.3000964028825740
  0.2300224772354260  0.6654969076732434  0.2986675911564906
  0.4370510931266395  0.0003350289988914  0.0989422959063823
  0.5607513737781401  0.0092039140796678  0.0329420625070211
  0.3330248834992396  0.1033785121006006  0.0989322842015677
  0.5633586232090743  0.2296683447538268  0.0989847831592083
  0.6574819331808915  0.2183560085299941  0.0329338219960682
  0.4484070733868661  0.1058728093729155  0.0329594879640728
  0.6573382458591855  0.1115955716744025  0.2319142790761143
  0.4446924468660993  0.1201083511214146  0.1660245957794450
  0.5556102490134402  0.2135830101500319  0.2323490429960119
  0.4534353651826646  0.0089995800604133  0.2320370759521766
  0.5464735742775543  0.3243609131432487  0.1660521763410014
  0.3424340379522544  0.2222259049112646  0.1660973635094677
  0.5517065068555875  0.2272737086399314  0.3651401593600895
  0.3338751287511124  0.2316567322255428  0.2981501718792041
  0.4414581650788132  0.3261000438423090  0.3620797724271086
  0.3376838331498012  0.1144242947746923  0.3617900210473260
  0.4367785648543240  0.1033489088426969  0.2993863130220180
  0.5628435071290301  0.0009657599984090  0.2985500505712622
  0.4369433421359085  0.3335911443012115  0.0990727506114902
  0.5608744086824279  0.3425180668191084  0.0329338219960682
  0.3329597294545889  0.4366924796512787  0.0989036865180689
  0.5632839358722522  0.5629489068733606  0.0989422959063823
  0.6574660693193818  0.5515929266131339  0.0329594879640728
  0.4484528736348600  0.4392486262218597  0.0329420625070211
  0.6579730944699174  0.4443897509865600  0.2323490429960119
  0.4444427424381141  0.4533834220767174  0.1660537411900303
  0.5555645482110810  0.5465646348173354  0.2320370759521766
  0.4542576591485494  0.3426617541408145  0.2319142790761143
  0.5465944837402650  0.6577944490307904  0.1659827102268813
  0.3422739544430871  0.5553442090670695  0.1660737751179136
  0.5560705986288765  0.5632900761287607  0.3647558639756915
  0.3345030923267566  0.5645255695621823  0.2986675911564906
  0.4471484199854833  0.6681571689835931  0.3640916406590464
  0.3477747610691651  0.4524856643926537  0.3603993144081130
  0.4381222528693786  0.4371564928709696  0.2985500505712622
  0.5638460733492560  0.3336948746831129  0.2993717071671013
  0.4370323026028137  0.6670695243232296  0.0989442045220444
  0.5608248274056353  0.6758872616841497  0.0328793186099312
  0.3329304756767699  0.7699627782795836  0.0989442045220444
  0.5633075203487218  0.8962672498033035  0.0989036865180689
  0.6574346678312650  0.8849333828581607  0.0328335193940304
  0.4483406280218381  0.7724810833729426  0.0328958550807937
  0.6576829818614126  0.7779954653765569  0.2321819102568842
  0.4446557909329308  0.7869300787093434  0.1660737751179136
  0.5552335242130106  0.8800215694201404  0.2325337765387224
  0.4535685797596886  0.6759387483611629  0.2322855374096486
  0.5466165779232824  0.9910596536947293  0.1660537411900303
  0.3422055509692095  0.8888003680428073  0.1659827102268813
  0.5475143356073464  0.8952894300098438  0.3603993144081130
  0.3334452084788919  0.8978138426919680  0.2986390408809268
  0.4367099238712396 -0.0072191441665518  0.3647558639756915
  0.3318428310164070  0.7789915843352155  0.3640916406590464
  0.4354744304378174  0.7699775227645742  0.2986675911564906
  0.5643686342130829  0.6665547915211081  0.2986390408809268
  0.7702843964227624  0.0002644858912048  0.0989283472187656
  0.8941492397022957  0.0092438734605419  0.0327820017789752
  0.6664088556987884  0.1033521978347039  0.0990727506114902
  0.8966214878993992  0.2296463713986391  0.0989322842015677
  0.9908195852806224  0.2183052922191108  0.0328352158460170
  0.7816673839518947  0.1059014342240304  0.0328487925831271
  0.9907014326418732  0.1121100503829694  0.2312017961081766
  0.7777740950887353  0.1202084663743222  0.1660973635094677
  0.8882707437255862  0.2132868707640471  0.2323449845813839
  0.7863560652126665  0.0089829204702225  0.2318537589789274
  0.8798916488785852  0.3245844290780171  0.1660245957794450
  0.6756390868567511  0.2221129944676456  0.1660521763410014
  0.8855757052253080  0.2232598717084416  0.3617900210473260
  0.6663051253168873  0.2301511986661432  0.2993717071671013
  0.7727262913600689  0.3244331315489957  0.3651401593600895
  0.6738999561576908  0.1153584545698365  0.3620797724271086
  0.7683432677744569  0.1022183965255696  0.2981501718792041
  0.8955761998092527 -0.0017026078186070  0.2969687151635503
  0.7703316552461729  0.3336902784552473  0.0989847831592083
  0.8941271906270846  0.3425339306806180  0.0329594879640728
  0.6663097215447521  0.4366413767909257  0.0989847831592083
  0.8966478021652959  0.5630566578640915  0.0990727506114902
  0.9907960859203323  0.5515471263651401  0.0329420625070211
  0.7816439914700062  0.4391255913175722  0.0329338219960682
  0.9910004199395867  0.4444354517889189  0.2320370759521766
  0.7778870055323545  0.4535264257224453  0.1660521763410014
  0.8884044283255975  0.5457423408514502  0.2319142790761143
  0.7864169898499684  0.3420269055300829  0.2323490429960119
  0.8797915336256780  0.6575659620477459  0.1660973635094677
  0.6754155709219833  0.5553075531339008  0.1660245957794450
  0.8846415454301634  0.5585418349211871  0.3620797724271086
  0.6665703439883659  0.5632214351456762  0.2993863130220180
  0.7767401282915586  0.6623161668501987  0.3617900210473260
  0.6755668684510041  0.4482934931444124  0.3651401593600895
  0.7698488013338569  0.4361539266507441  0.2993717071671013
  0.8966510911573032  0.3334296560116342  0.2993863130220180
  0.7703536286013609  0.6669751165007601  0.0989322842015677
  0.8940985657759697  0.6757656163945316  0.0328487925831271
  0.6663684189933814  0.7699331944621249  0.0989765507720571
  0.8965175254603746  0.8963961735096115  0.0989975196342196
  0.9907561265394580  0.8849050329084214  0.0327820017789752
  0.7816947077808891  0.7725139597281792  0.0328352158460170
  0.9910170795297776  0.7773728114091117  0.2318537589789274
  0.7775050769426207  0.7865146416072596  0.1660800071537319
  0.8878899496170305  0.8785910489255712  0.2312017961081766
  0.7867131292359527  0.6749835396282066  0.2323449845813839
  0.8800321799647958  0.9911967420847531  0.1661351003040398
  0.6754970871248760  0.8887987659322901  0.1659241873004405
  0.8864035123741405  0.8951554598590979  0.3611465459080276
  0.6679616657721904  0.8973777996049638  0.3000964028825740
  0.7771817672275025  0.9989480430210391  0.3644349578022177
  0.6779834491745079  0.7830561807282631  0.3646997396510563
  0.7686029317135219  0.7700831610632615  0.2979951767537197
  0.8977816034744309  0.6661248712488876  0.2981501718792041
  0.0000000000000000  0.0000000000000000  0.4320762430556603
 -0.0386909037534989  0.1290569732403609  0.4553079454568527
 -0.0465772723688126  0.1974085115776266  0.4293471521400328
  0.0493425177069687  0.3841755366312484  0.4637255129260284
 -0.0464984483051661  0.5463890351524701  0.4248617433085031
 -0.0201755160203300  0.5877710042012604  0.4610857011720619
  0.0765332864514858  0.7605596414283132  0.4509677246239077
 -0.0301396662523892  0.8738405889868048  0.4332983932173368
  0.1677478769938598  0.0386909037534989  0.4553079454568527
  0.1261594110131951  0.0960197447608059  0.4332983932173368
  0.1335117054364458  0.2396011666910070  0.4507161618616671
  0.1183852808145240  0.3569032647061398  0.4708503051833203
  0.1114090530848962  0.4934797426921437  0.4261952126768004
  0.1111932686677447  0.5541090051246080  0.4559010980872284
  0.1105252141681474  0.7263985338198630  0.4176882086037392
  0.1060894612545612  0.8664882945635541  0.4507161618616671
  0.2439857839464392  0.0465772723688126  0.4293471521400328
  0.3153784128227538  0.2035758963400648  0.4857300316049525
  0.2394403585716871  0.3159736450231727  0.4509677246239077
  0.2736014661801370  0.3841266803482843  0.4176882086037392
  0.2951561899766940  0.5762244180318753  0.4827258632796302
  0.2773494537560645  0.7027927097195141  0.4440066835425702
  0.2810682280551816  0.7048438100233057  0.4827258632796302
  0.2385179838916159  0.8816147191854761  0.4708503051833203
  0.3348330189242796 -0.0493425177069687  0.4637255129260284
  0.4162610001059612  0.1052007642379936  0.4360351039259656
  0.3182307388689851  0.2106571345336571  0.4480064554508016
  0.4122289957987396  0.3920534797784095  0.4610857011720619
  0.4458909948753917  0.5570842635431368  0.4559010980872284
  0.2972072902804859  0.5745567440365503  0.4440066835425702
  0.4254432559634496  0.7226505462439358  0.4440066835425702
  0.3820706896072475  0.8885909469151037  0.4261952126768004
  0.5928874834576360  0.0464984483051661  0.4248617433085032
  0.4922637817834951  0.0976501977907166  0.4522906907551371
  0.4684519993998371  0.2718930849123587  0.4432907662841571
  0.4873313519224832  0.2853521879428738  0.4812606568543755
  0.4536109648475302  0.4071125165423639  0.4248617433085031
  0.5065202573078563  0.6179293103927527  0.4261952126768004
  0.4237755819681241  0.7189317719448183  0.4827258632796302
  0.4429157364568634  0.8888067313322555  0.4559010980872284
  0.6079465202215907  0.0201755160203300  0.4610857011720619
  0.7146478120571264  0.2019791639796093  0.4812606568543755
  0.6196205362224013  0.2700949423251192  0.4469062612964849
  0.6504744061027177  0.3803794637775987  0.4469062612964849
  0.6053864160072217  0.5077362182165049  0.4522906907551371
  0.6158244633687520  0.6651669810757206  0.4637255129260284
  0.6430967352938602  0.7614820161083841  0.4708503051833203
  0.6158733196517155  0.8894747858318526  0.4176882086037392
  0.6840263549768274 -0.0765332864514858  0.4509677246239077
  0.7893428654663431  0.1075736043353277  0.4480064554508016
  0.7281069150876410  0.1965589144874784  0.4432907662841571
  0.7299050576748805  0.3495255938972822  0.4469062612964849
  0.8034410855125216  0.5315480006001629  0.4432907662841571
  0.6889397641320324  0.5837389998940389  0.4360351039259656
  0.8025914884223733  0.7560142160535607  0.4293471521400328
  0.7603988333089928  0.8939105387454388  0.4507161618616671
  0.9039802552391941  0.0301396662523892  0.4332983932173368
  0.7964241036599352  0.1118025164826889  0.4857300316049525
  0.8947992357620068  0.3110602358679679  0.4360351039259656
  0.9023498022092834  0.3946135839927784  0.4522906907551371
  0.7980208360203908  0.5126686480775170  0.4812606568543755
  0.8924263956646725  0.6817692611310152  0.4480064554508016
  0.8881974835173110  0.6846215871772460  0.4857300316049525
  0.8709430267596390  0.8322521230061404  0.4553079454568527
 
  0.00000000E+00  0.00000000E+00  0.00000000E+00
  0.00000000E+00  0.00000000E+00  0.00000000E+00
  0.00000000E+00  0.00000000E+00  0.00000000E+00
  0.00000000E+00  0.00000000E+00  0.00000000E+00
  0.00000000E+00  0.00000000E+00  0.00000000E+00
  0.00000000E+00  0.00000000E+00  0.00000000E+00
  0.00000000E+00  0.00000000E+00  0.00000000E+00
  0.00000000E+00  0.00000000E+00  0.00000000E+00
  0.00000000E+00  0.00000000E+00  0.00000000E+00
  0.00000000E+00  0.00000000E+00  0.00000000E+00
  0.00000000E+00  0.00000000E+00  0.00000000E+00
  0.00000000E+00  0.00000000E+00  0.00000000E+00
  0.00000000E+00  0.00000000E+00  0.00000000E+00
  0.00000000E+00  0.00000000E+00  0.00000000E+00
  0.00000000E+00  0.00000000E+00  0.00000000E+00
  0.00000000E+00  0.00000000E+00  0.00000000E+00
  0.00000000E+00  0.00000000E+00  0.00000000E+00
  0.00000000E+00  0.00000000E+00  0.00000000E+00
  0.00000000E+00  0.00000000E+00  0.00000000E+00
  0.00000000E+00  0.00000000E+00  0.00000000E+00
  0.00000000E+00  0.00000000E+00  0.00000000E+00
  0.00000000E+00  0.00000000E+00  0.00000000E+00
  0.00000000E+00  0.00000000E+00  0.00000000E+00
  0.00000000E+00  0.00000000E+00  0.00000000E+00
  0.00000000E+00  0.00000000E+00  0.00000000E+00
  0.00000000E+00  0.00000000E+00  0.00000000E+00
  0.00000000E+00  0.00000000E+00  0.00000000E+00
  0.00000000E+00  0.00000000E+00  0.00000000E+00
  0.00000000E+00  0.00000000E+00  0.00000000E+00
  0.00000000E+00  0.00000000E+00  0.00000000E+00
  0.00000000E+00  0.00000000E+00  0.00000000E+00
  0.00000000E+00  0.00000000E+00  0.00000000E+00
  0.00000000E+00  0.00000000E+00  0.00000000E+00
  0.00000000E+00  0.00000000E+00  0.00000000E+00
  0.00000000E+00  0.00000000E+00  0.00000000E+00
  0.00000000E+00  0.00000000E+00  0.00000000E+00
  0.00000000E+00  0.00000000E+00  0.00000000E+00
  0.00000000E+00  0.00000000E+00  0.00000000E+00
  0.00000000E+00  0.00000000E+00  0.00000000E+00
  0.00000000E+00  0.00000000E+00  0.00000000E+00
  0.00000000E+00  0.00000000E+00  0.00000000E+00
  0.00000000E+00  0.00000000E+00  0.00000000E+00
  0.00000000E+00  0.00000000E+00  0.00000000E+00
  0.00000000E+00  0.00000000E+00  0.00000000E+00
  0.00000000E+00  0.00000000E+00  0.00000000E+00
  0.00000000E+00  0.00000000E+00  0.00000000E+00
  0.00000000E+00  0.00000000E+00  0.00000000E+00
  0.00000000E+00  0.00000000E+00  0.00000000E+00
  0.00000000E+00  0.00000000E+00  0.00000000E+00
  0.00000000E+00  0.00000000E+00  0.00000000E+00
  0.00000000E+00  0.00000000E+00  0.00000000E+00
  0.00000000E+00  0.00000000E+00  0.00000000E+00
  0.00000000E+00  0.00000000E+00  0.00000000E+00
  0.00000000E+00  0.00000000E+00  0.00000000E+00
  0.00000000E+00  0.00000000E+00  0.00000000E+00
  0.00000000E+00  0.00000000E+00  0.00000000E+00
  0.00000000E+00  0.00000000E+00  0.00000000E+00
  0.00000000E+00  0.00000000E+00  0.00000000E+00
  0.00000000E+00  0.00000000E+00  0.00000000E+00
  0.00000000E+00  0.00000000E+00  0.00000000E+00
  0.00000000E+00  0.00000000E+00  0.00000000E+00
  0.00000000E+00  0.00000000E+00  0.00000000E+00
  0.00000000E+00  0.00000000E+00  0.00000000E+00
  0.00000000E+00  0.00000000E+00  0.00000000E+00
  0.00000000E+00  0.00000000E+00  0.00000000E+00
  0.00000000E+00  0.00000000E+00  0.00000000E+00
  0.00000000E+00  0.00000000E+00  0.00000000E+00
  0.00000000E+00  0.00000000E+00  0.00000000E+00
  0.00000000E+00  0.00000000E+00  0.00000000E+00
  0.00000000E+00  0.00000000E+00  0.00000000E+00
  0.00000000E+00  0.00000000E+00  0.00000000E+00
  0.00000000E+00  0.00000000E+00  0.00000000E+00
  0.00000000E+00  0.00000000E+00  0.00000000E+00
  0.00000000E+00  0.00000000E+00  0.00000000E+00
  0.00000000E+00  0.00000000E+00  0.00000000E+00
  0.00000000E+00  0.00000000E+00  0.00000000E+00
  0.00000000E+00  0.00000000E+00  0.00000000E+00
  0.00000000E+00  0.00000000E+00  0.00000000E+00
  0.00000000E+00  0.00000000E+00  0.00000000E+00
  0.00000000E+00  0.00000000E+00  0.00000000E+00
  0.00000000E+00  0.00000000E+00  0.00000000E+00
  0.00000000E+00  0.00000000E+00  0.00000000E+00
  0.00000000E+00  0.00000000E+00  0.00000000E+00
  0.00000000E+00  0.00000000E+00  0.00000000E+00
  0.00000000E+00  0.00000000E+00  0.00000000E+00
  0.00000000E+00  0.00000000E+00  0.00000000E+00
  0.00000000E+00  0.00000000E+00  0.00000000E+00
  0.00000000E+00  0.00000000E+00  0.00000000E+00
  0.00000000E+00  0.00000000E+00  0.00000000E+00
  0.00000000E+00  0.00000000E+00  0.00000000E+00
  0.00000000E+00  0.00000000E+00  0.00000000E+00
  0.00000000E+00  0.00000000E+00  0.00000000E+00
  0.00000000E+00  0.00000000E+00  0.00000000E+00
  0.00000000E+00  0.00000000E+00  0.00000000E+00
  0.00000000E+00  0.00000000E+00  0.00000000E+00
  0.00000000E+00  0.00000000E+00  0.00000000E+00
  0.00000000E+00  0.00000000E+00  0.00000000E+00
  0.00000000E+00  0.00000000E+00  0.00000000E+00
  0.00000000E+00  0.00000000E+00  0.00000000E+00
  0.00000000E+00  0.00000000E+00  0.00000000E+00
  0.00000000E+00  0.00000000E+00  0.00000000E+00
  0.00000000E+00  0.00000000E+00  0.00000000E+00
  0.00000000E+00  0.00000000E+00  0.00000000E+00
  0.00000000E+00  0.00000000E+00  0.00000000E+00
  0.00000000E+00  0.00000000E+00  0.00000000E+00
  0.00000000E+00  0.00000000E+00  0.00000000E+00
  0.00000000E+00  0.00000000E+00  0.00000000E+00
  0.00000000E+00  0.00000000E+00  0.00000000E+00
  0.00000000E+00  0.00000000E+00  0.00000000E+00
  0.00000000E+00  0.00000000E+00  0.00000000E+00
  0.00000000E+00  0.00000000E+00  0.00000000E+00
  0.00000000E+00  0.00000000E+00  0.00000000E+00
  0.00000000E+00  0.00000000E+00  0.00000000E+00
  0.00000000E+00  0.00000000E+00  0.00000000E+00
  0.00000000E+00  0.00000000E+00  0.00000000E+00
  0.00000000E+00  0.00000000E+00  0.00000000E+00
  0.00000000E+00  0.00000000E+00  0.00000000E+00
  0.00000000E+00  0.00000000E+00  0.00000000E+00
  0.00000000E+00  0.00000000E+00  0.00000000E+00
  0.00000000E+00  0.00000000E+00  0.00000000E+00
  0.00000000E+00  0.00000000E+00  0.00000000E+00
  0.00000000E+00  0.00000000E+00  0.00000000E+00
  0.00000000E+00  0.00000000E+00  0.00000000E+00
  0.00000000E+00  0.00000000E+00  0.00000000E+00
  0.00000000E+00  0.00000000E+00  0.00000000E+00
  0.00000000E+00  0.00000000E+00  0.00000000E+00
  0.00000000E+00  0.00000000E+00  0.00000000E+00
  0.00000000E+00  0.00000000E+00  0.00000000E+00
  0.00000000E+00  0.00000000E+00  0.00000000E+00
  0.00000000E+00  0.00000000E+00  0.00000000E+00
  0.00000000E+00  0.00000000E+00  0.00000000E+00
  0.00000000E+00  0.00000000E+00  0.00000000E+00
  0.00000000E+00  0.00000000E+00  0.00000000E+00
  0.00000000E+00  0.00000000E+00  0.00000000E+00
  0.00000000E+00  0.00000000E+00  0.00000000E+00
  0.00000000E+00  0.00000000E+00  0.00000000E+00
  0.00000000E+00  0.00000000E+00  0.00000000E+00
  0.00000000E+00  0.00000000E+00  0.00000000E+00
  0.00000000E+00  0.00000000E+00  0.00000000E+00
  0.00000000E+00  0.00000000E+00  0.00000000E+00
  0.00000000E+00  0.00000000E+00  0.00000000E+00
  0.00000000E+00  0.00000000E+00  0.00000000E+00
  0.00000000E+00  0.00000000E+00  0.00000000E+00
  0.00000000E+00  0.00000000E+00  0.00000000E+00
  0.00000000E+00  0.00000000E+00  0.00000000E+00
  0.00000000E+00  0.00000000E+00  0.00000000E+00
  0.00000000E+00  0.00000000E+00  0.00000000E+00
  0.00000000E+00  0.00000000E+00  0.00000000E+00
  0.00000000E+00  0.00000000E+00  0.00000000E+00
  0.00000000E+00  0.00000000E+00  0.00000000E+00
  0.00000000E+00  0.00000000E+00  0.00000000E+00
  0.00000000E+00  0.00000000E+00  0.00000000E+00
  0.00000000E+00  0.00000000E+00  0.00000000E+00
  0.00000000E+00  0.00000000E+00  0.00000000E+00
  0.00000000E+00  0.00000000E+00  0.00000000E+00
  0.00000000E+00  0.00000000E+00  0.00000000E+00
  0.00000000E+00  0.00000000E+00  0.00000000E+00
  0.00000000E+00  0.00000000E+00  0.00000000E+00
  0.00000000E+00  0.00000000E+00  0.00000000E+00
  0.00000000E+00  0.00000000E+00  0.00000000E+00
  0.00000000E+00  0.00000000E+00  0.00000000E+00
  0.00000000E+00  0.00000000E+00  0.00000000E+00
  0.00000000E+00  0.00000000E+00  0.00000000E+00
  0.00000000E+00  0.00000000E+00  0.00000000E+00
  0.00000000E+00  0.00000000E+00  0.00000000E+00
  0.00000000E+00  0.00000000E+00  0.00000000E+00
  0.00000000E+00  0.00000000E+00  0.00000000E+00
  0.00000000E+00  0.00000000E+00  0.00000000E+00
  0.00000000E+00  0.00000000E+00  0.00000000E+00
  0.00000000E+00  0.00000000E+00  0.00000000E+00
  0.00000000E+00  0.00000000E+00  0.00000000E+00
  0.00000000E+00  0.00000000E+00  0.00000000E+00
  0.00000000E+00  0.00000000E+00  0.00000000E+00
  0.00000000E+00  0.00000000E+00  0.00000000E+00
  0.00000000E+00  0.00000000E+00  0.00000000E+00
  0.00000000E+00  0.00000000E+00  0.00000000E+00
  0.00000000E+00  0.00000000E+00  0.00000000E+00
  0.00000000E+00  0.00000000E+00  0.00000000E+00
  0.00000000E+00  0.00000000E+00  0.00000000E+00
  0.00000000E+00  0.00000000E+00  0.00000000E+00
  0.00000000E+00  0.00000000E+00  0.00000000E+00
  0.00000000E+00  0.00000000E+00  0.00000000E+00
  0.00000000E+00  0.00000000E+00  0.00000000E+00
  0.00000000E+00  0.00000000E+00  0.00000000E+00
  0.00000000E+00  0.00000000E+00  0.00000000E+00
  0.00000000E+00  0.00000000E+00  0.00000000E+00
  0.00000000E+00  0.00000000E+00  0.00000000E+00
  0.00000000E+00  0.00000000E+00  0.00000000E+00
  0.00000000E+00  0.00000000E+00  0.00000000E+00
  0.00000000E+00  0.00000000E+00  0.00000000E+00