New structure                           
   1.00000000000000     
     0.0000000000000000  -15.1462217587961998    0.0000000000000000
     0.0000000000000000   -7.5731108793980804  -13.1170128144700993
    29.0000000000000000    0.0000000000000000    0.0000000000000000
   Ni  O
   252 2
Cartesian
   3.02601000000000       -10.0974800000000       -5.82978000000000     
   3.02601000000000       -12.6218500000000       -10.2021200000000     
   3.02601000000000       -7.57311000000000       -1.45745000000000     
   3.02601000000000       -15.1462200000000       -5.82978000000000     
   3.02601000000000       -17.6705900000000       -10.2021200000000     
   3.02601000000000       -12.6218500000000       -1.45745000000000     
   3.02601000000000       -5.04874000000000       -5.82978000000000     
   3.02601000000000       -7.57311000000000       -10.2021200000000     
   3.02601000000000       -2.52437000000000       -1.45745000000000     
   5.02238000000000       -12.6218500000000       -7.28723000000000     
   5.02238000000000       -15.1462200000000       -11.6595700000000     
   5.02238000000000       -10.0974800000000       -2.91489000000000     
   5.02238000000000       -17.6705900000000       -7.28723000000000     
   5.02238000000000       -20.1949600000000       -11.6595700000000     
   5.02238000000000       -15.1462200000000       -2.91489000000000     
   5.02238000000000       -7.57311000000000       -7.28723000000000     
   5.02238000000000       -10.0974800000000       -11.6595700000000     
   5.02238000000000       -5.04874000000000       -2.91489000000000     
   7.03247000000000       -15.1462200000000       -8.74468000000000     
   7.03247000000000       -10.0974800000000       0.000000000000000E+000
   7.03247000000000       -12.6218500000000       -4.37234000000000     
   7.03247000000000       -5.04874000000000       -8.74468000000000     
   7.03247000000000       0.000000000000000E+000  0.000000000000000E+000
   7.03247000000000       -2.52437000000000       -4.37234000000000     
   7.03247000000000       -10.0974800000000       -8.74468000000000     
   7.03247000000000       -5.04874000000000       0.000000000000000E+000
   7.03247000000000       -7.57311000000000       -4.37234000000000     
   9.04019000000000       -17.6705900000000       -10.2021200000000     
   9.04019000000000       -12.6218500000000       -1.45745000000000     
   9.04019000000000       -15.1462200000000       -5.82978000000000     
   9.04019000000000       -7.57311000000000       -10.2021200000000     
   9.04019000000000       -2.52437000000000       -1.45745000000000     
   9.04019000000000       -5.04874000000000       -5.82978000000000     
   9.04019000000000       -12.6218500000000       -10.2021200000000     
   9.04019000000000       -7.57311000000000       -1.45745000000000     
   9.04019000000000       -10.0974800000000       -5.82978000000000     
   11.0479100000000       -20.1949600000000       -11.6595700000000     
   11.0479100000000       -15.1462200000000       -2.91489000000000     
   11.0479100000000       -17.6705900000000       -7.28723000000000     
   11.0479100000000       -10.0974800000000       -11.6595700000000     
   11.0479100000000       -5.04874000000000       -2.91489000000000     
   11.0479100000000       -7.57311000000000       -7.28723000000000     
   11.0479100000000       -15.1462200000000       -11.6595700000000     
   11.0479100000000       -10.0974800000000       -2.91489000000000     
   11.0479100000000       -12.6218500000000       -7.28723000000000     
   13.0580000000000       0.000000000000000E+000  0.000000000000000E+000
   13.0580000000000       -2.52437000000000       -4.37234000000000     
   13.0580000000000       -5.04874000000000       -8.74468000000000     
   13.0580000000000       -5.04874000000000       0.000000000000000E+000
   13.0580000000000       -7.57311000000000       -4.37234000000000     
   13.0580000000000       -10.0974800000000       -8.74468000000000     
   13.0580000000000       -10.0974800000000       0.000000000000000E+000
   13.0580000000000       -12.6218500000000       -4.37234000000000     
   13.0580000000000       -15.1462200000000       -8.74468000000000     
   15.0543700000000       -2.52437000000000       -1.45745000000000     
   15.0543700000000       -5.04874000000000       -5.82978000000000     
   15.0543700000000       -7.57311000000000       -10.2021200000000     
   15.0543700000000       -7.57311000000000       -1.45745000000000     
   15.0543700000000       -10.0974800000000       -5.82978000000000     
   15.0543700000000       -12.6218500000000       -10.2021200000000     
   15.0543700000000       -12.6218500000000       -1.45745000000000     
   15.0543700000000       -15.1462200000000       -5.82978000000000     
   15.0543700000000       -17.6705900000000       -10.2021200000000     
   3.02601000000000       -6.31093000000000       -3.64361000000000     
   3.02601000000000       -8.83530000000000       -8.01595000000000     
   3.02601000000000       -11.3596700000000       -12.3882900000000     
   3.02601000000000       -11.3596700000000       -3.64361000000000     
   3.02601000000000       -13.8840400000000       -8.01595000000000     
   3.02601000000000       -16.4084100000000       -12.3882900000000     
   3.02601000000000       -16.4084100000000       -3.64361000000000     
   3.02601000000000       -18.9327800000000       -8.01595000000000     
   3.02601000000000       -21.4571500000000       -12.3882900000000     
   5.02238000000000       -8.83530000000000       -5.10106000000000     
   5.02238000000000       -11.3596700000000       -9.47340000000000     
   5.02238000000000       -6.31093000000000      -0.728720000000000     
   5.02238000000000       -13.8840400000000       -5.10106000000000     
   5.02238000000000       -16.4084100000000       -9.47340000000000     
   5.02238000000000       -11.3596700000000      -0.728720000000000     
   5.02238000000000       -3.78656000000000       -5.10106000000000     
   5.02238000000000       -6.31093000000000       -9.47340000000000     
   5.02238000000000       -1.26219000000000      -0.728720000000000     
   7.03247000000000       -11.3596700000000       -6.55851000000000     
   7.03247000000000       -13.8840400000000       -10.9308400000000     
   7.03247000000000       -8.83530000000000       -2.18617000000000     
   7.03247000000000       -16.4084100000000       -6.55851000000000     
   7.03247000000000       -18.9327800000000       -10.9308400000000     
   7.03247000000000       -13.8840400000000       -2.18617000000000     
   7.03247000000000       -6.31093000000000       -6.55851000000000     
   7.03247000000000       -8.83530000000000       -10.9308400000000     
   7.03247000000000       -3.78656000000000       -2.18617000000000     
   9.04019000000000       -13.8840400000000       -8.01595000000000     
   9.04019000000000       -16.4084100000000       -12.3882900000000     
   9.04019000000000       -11.3596700000000       -3.64361000000000     
   9.04019000000000       -18.9327800000000       -8.01595000000000     
   9.04019000000000       -21.4571500000000       -12.3882900000000     
   9.04019000000000       -16.4084100000000       -3.64361000000000     
   9.04019000000000       -8.83530000000000       -8.01595000000000     
   9.04019000000000       -11.3596700000000       -12.3882900000000     
   9.04019000000000       -6.31093000000000       -3.64361000000000     
   11.0479100000000       -16.4084100000000       -9.47340000000000     
   11.0479100000000       -11.3596700000000      -0.728720000000000     
   11.0479100000000       -13.8840400000000       -5.10106000000000     
   11.0479100000000       -6.31093000000000       -9.47340000000000     
   11.0479100000000       -1.26219000000000      -0.728720000000000     
   11.0479100000000       -3.78656000000000       -5.10106000000000     
   11.0479100000000       -11.3596700000000       -9.47340000000000     
   11.0479100000000       -6.31093000000000      -0.728720000000000     
   11.0479100000000       -8.83530000000000       -5.10106000000000     
   13.0580000000000       -18.9327800000000       -10.9308400000000     
   13.0580000000000       -13.8840400000000       -2.18617000000000     
   13.0580000000000       -16.4084100000000       -6.55851000000000     
   13.0580000000000       -8.83530000000000       -10.9308400000000     
   13.0580000000000       -3.78656000000000       -2.18617000000000     
   13.0580000000000       -6.31093000000000       -6.55851000000000     
   13.0580000000000       -13.8840400000000       -10.9308400000000     
   13.0580000000000       -8.83530000000000       -2.18617000000000     
   13.0580000000000       -11.3596700000000       -6.55851000000000     
   15.0543700000000       -21.4571500000000       -12.3882900000000     
   15.0543700000000       -16.4084100000000       -3.64361000000000     
   15.0543700000000       -18.9327800000000       -8.01595000000000     
   15.0543700000000       -11.3596700000000       -12.3882900000000     
   15.0543700000000       -6.31093000000000       -3.64361000000000     
   15.0543700000000       -8.83530000000000       -8.01595000000000     
   15.0543700000000       -16.4084100000000       -12.3882900000000     
   15.0543700000000       -11.3596700000000       -3.64361000000000     
   15.0543700000000       -13.8840400000000       -8.01595000000000     
   3.02601000000000       -7.57311000000000       -5.82978000000000     
   3.02601000000000       -10.0974800000000       -10.2021200000000     
   3.02601000000000       -5.04874000000000       -1.45745000000000     
   3.02601000000000       -12.6218500000000       -5.82978000000000     
   3.02601000000000       -15.1462200000000       -10.2021200000000     
   3.02601000000000       -10.0974800000000       -1.45745000000000     
   3.02601000000000       -17.6705900000000       -5.82978000000000     
   3.02601000000000       -20.1949600000000       -10.2021200000000     
   3.02601000000000       -15.1462200000000       -1.45745000000000     
   5.02238000000000       -10.0974800000000       -7.28723000000000     
   5.02238000000000       -12.6218500000000       -11.6595700000000     
   5.02238000000000       -7.57311000000000       -2.91489000000000     
   5.02238000000000       -15.1462200000000       -7.28723000000000     
   5.02238000000000       -17.6705900000000       -11.6595700000000     
   5.02238000000000       -12.6218500000000       -2.91489000000000     
   5.02238000000000       -5.04874000000000       -7.28723000000000     
   5.02238000000000       -7.57311000000000       -11.6595700000000     
   5.02238000000000       -2.52437000000000       -2.91489000000000     
   7.03247000000000       -12.6218500000000       -8.74468000000000     
   7.03247000000000       -7.57311000000000       0.000000000000000E+000
   7.03247000000000       -10.0974800000000       -4.37234000000000     
   7.03247000000000       -17.6705900000000       -8.74468000000000     
   7.03247000000000       -12.6218500000000       0.000000000000000E+000
   7.03247000000000       -15.1462200000000       -4.37234000000000     
   7.03247000000000       -7.57311000000000       -8.74468000000000     
   7.03247000000000       -2.52437000000000       0.000000000000000E+000
   7.03247000000000       -5.04874000000000       -4.37234000000000     
   9.04019000000000       -15.1462200000000       -10.2021200000000     
   9.04019000000000       -10.0974800000000       -1.45745000000000     
   9.04019000000000       -12.6218500000000       -5.82978000000000     
   9.04019000000000       -20.1949600000000       -10.2021200000000     
   9.04019000000000       -15.1462200000000       -1.45745000000000     
   9.04019000000000       -17.6705900000000       -5.82978000000000     
   9.04019000000000       -10.0974800000000       -10.2021200000000     
   9.04019000000000       -5.04874000000000       -1.45745000000000     
   9.04019000000000       -7.57311000000000       -5.82978000000000     
   11.0479100000000       -17.6705900000000       -11.6595700000000     
   11.0479100000000       -12.6218500000000       -2.91489000000000     
   11.0479100000000       -15.1462200000000       -7.28723000000000     
   11.0479100000000       -7.57311000000000       -11.6595700000000     
   11.0479100000000       -2.52437000000000       -2.91489000000000     
   11.0479100000000       -5.04874000000000       -7.28723000000000     
   11.0479100000000       -12.6218500000000       -11.6595700000000     
   11.0479100000000       -7.57311000000000       -2.91489000000000     
   11.0479100000000       -10.0974800000000       -7.28723000000000     
   13.0580000000000       -12.6218500000000       0.000000000000000E+000
   13.0580000000000       -15.1462200000000       -4.37234000000000     
   13.0580000000000       -17.6705900000000       -8.74468000000000     
   13.0580000000000       -2.52437000000000       0.000000000000000E+000
   13.0580000000000       -5.04874000000000       -4.37234000000000     
   13.0580000000000       -7.57311000000000       -8.74468000000000     
   13.0580000000000       -7.57311000000000       0.000000000000000E+000
   13.0580000000000       -10.0974800000000       -4.37234000000000     
   13.0580000000000       -12.6218500000000       -8.74468000000000     
   15.0543700000000       -15.1462200000000       -1.45745000000000     
   15.0543700000000       -17.6705900000000       -5.82978000000000     
   15.0543700000000       -20.1949600000000       -10.2021200000000     
   15.0543700000000       -5.04874000000000       -1.45745000000000     
   15.0543700000000       -7.57311000000000       -5.82978000000000     
   15.0543700000000       -10.0974800000000       -10.2021200000000     
   15.0543700000000       -10.0974800000000       -1.45745000000000     
   15.0543700000000       -12.6218500000000       -5.82978000000000     
   15.0543700000000       -15.1462200000000       -10.2021200000000     
   3.02601000000000       -8.83530000000000       -3.64361000000000     
   3.02601000000000       -11.3596700000000       -8.01595000000000     
   3.02601000000000       -13.8840400000000       -12.3882900000000     
   3.02601000000000       -13.8840400000000       -3.64361000000000     
   3.02601000000000       -16.4084100000000       -8.01595000000000     
   3.02601000000000       -18.9327800000000       -12.3882900000000     
   3.02601000000000       -3.78656000000000       -3.64361000000000     
   3.02601000000000       -6.31093000000000       -8.01595000000000     
   3.02601000000000       -8.83530000000000       -12.3882900000000     
   5.02238000000000       -11.3596700000000       -5.10106000000000     
   5.02238000000000       -13.8840400000000       -9.47340000000000     
   5.02238000000000       -8.83530000000000      -0.728720000000000     
   5.02238000000000       -16.4084100000000       -5.10106000000000     
   5.02238000000000       -18.9327800000000       -9.47340000000000     
   5.02238000000000       -13.8840400000000      -0.728720000000000     
   5.02238000000000       -6.31093000000000       -5.10106000000000     
   5.02238000000000       -8.83530000000000       -9.47340000000000     
   5.02238000000000       -3.78656000000000      -0.728720000000000     
   7.03247000000000       -13.8840400000000       -6.55851000000000     
   7.03247000000000       -16.4084100000000       -10.9308400000000     
   7.03247000000000       -11.3596700000000       -2.18617000000000     
   7.03247000000000       -3.78656000000000       -6.55851000000000     
   7.03247000000000       -6.31093000000000       -10.9308400000000     
   7.03247000000000       -1.26219000000000       -2.18617000000000     
   7.03247000000000       -8.83530000000000       -6.55851000000000     
   7.03247000000000       -11.3596700000000       -10.9308400000000     
   7.03247000000000       -6.31093000000000       -2.18617000000000     
   9.04019000000000       -16.4084100000000       -8.01595000000000     
   9.04019000000000       -18.9327800000000       -12.3882900000000     
   9.04019000000000       -13.8840400000000       -3.64361000000000     
   9.04019000000000       -6.31093000000000       -8.01595000000000     
   9.04019000000000       -8.83530000000000       -12.3882900000000     
   9.04019000000000       -3.78656000000000       -3.64361000000000     
   9.04019000000000       -11.3596700000000       -8.01595000000000     
   9.04019000000000       -13.8840400000000       -12.3882900000000     
   9.04019000000000       -8.83530000000000       -3.64361000000000     
   11.0479100000000       -18.9327800000000       -9.47340000000000     
   11.0479100000000       -13.8840400000000      -0.728720000000000     
   11.0479100000000       -16.4084100000000       -5.10106000000000     
   11.0479100000000       -8.83530000000000       -9.47340000000000     
   11.0479100000000       -3.78656000000000      -0.728720000000000     
   11.0479100000000       -6.31093000000000       -5.10106000000000     
   11.0479100000000       -13.8840400000000       -9.47340000000000     
   11.0479100000000       -8.83530000000000      -0.728720000000000     
   11.0479100000000       -11.3596700000000       -5.10106000000000     
   13.0580000000000       -6.31093000000000       -10.9308400000000     
   13.0580000000000       -1.26219000000000       -2.18617000000000     
   13.0580000000000       -3.78656000000000       -6.55851000000000     
   13.0580000000000       -11.3596700000000       -10.9308400000000     
   13.0580000000000       -6.31093000000000       -2.18617000000000     
   13.0580000000000       -8.83530000000000       -6.55851000000000     
   13.0580000000000       -16.4084100000000       -10.9308400000000     
   13.0580000000000       -11.3596700000000       -2.18617000000000     
   13.0580000000000       -13.8840400000000       -6.55851000000000     
   15.0543700000000       -8.83530000000000       -12.3882900000000     
   15.0543700000000       -3.78656000000000       -3.64361000000000     
   15.0543700000000       -6.31093000000000       -8.01595000000000     
   15.0543700000000       -13.8840400000000       -12.3882900000000     
   15.0543700000000       -8.83530000000000       -3.64361000000000     
   15.0543700000000       -11.3596700000000       -8.01595000000000     
   15.0543700000000       -18.9327800000000       -12.3882900000000     
   15.0543700000000       -13.8840400000000       -3.64361000000000     
   15.0543700000000       -16.4084100000000       -8.01595000000000     
   17.0500000000000       -11.3600000000000       -5.10000000000000     
   17.0500000000000       -11.3600000000000       -6.38000000000000     
