New structure                           
    1.000000000000000     
    10.5415000915999997    0.0000000000000000    0.0000000000000000
     5.2707500457999998    9.1292068732999994    0.0000000000000000
     0.0000000000000000    0.0000000000000000   10.5415000915999997
   Ni   O 
   125   125
Direct
  0.0000000000000000  0.0000000000000000  0.0000000000000000
  0.0000000000000000  0.0000000000000000  0.2000000029999995
  0.0000000000000000  0.0000000000000000  0.4000000059999991
  0.0000000000000000  0.0000000000000000  0.6000000240000034
  0.0000000000000000  0.0000000000000000  0.8000000119999982
  0.0000000000000000  0.2000000029999995  0.0000000000000000
  0.0000000000000000  0.2000000029999995  0.2000000029999995
  0.0000000000000000  0.2000000029999995  0.4000000059999991
  0.0000000000000000  0.2000000029999995  0.6000000240000034
  0.0000000000000000  0.2000000029999995  0.8000000119999982
  0.0000000000000000  0.4000000059999991  0.0000000000000000
  0.0000000000000000  0.4000000059999991  0.2000000029999995
  0.0000000000000000  0.4000000059999991  0.4000000059999991
  0.0000000000000000  0.4000000059999991  0.6000000240000034
  0.0000000000000000  0.4000000059999991  0.8000000119999982
  0.0000000000000000  0.6000000240000034  0.0000000000000000
  0.0000000000000000  0.6000000240000034  0.2000000029999995
  0.0000000000000000  0.6000000240000034  0.4000000059999991
  0.0000000000000000  0.6000000240000034  0.6000000240000034
  0.0000000000000000  0.6000000240000034  0.8000000119999982
  0.0000000000000000  0.8000000119999982  0.0000000000000000
  0.0000000000000000  0.8000000119999982  0.2000000029999995
  0.0000000000000000  0.8000000119999982  0.4000000059999991
  0.0000000000000000  0.8000000119999982  0.6000000240000034
  0.0000000000000000  0.8000000119999982  0.8000000119999982
  0.2000000029999995  0.0000000000000000  0.0000000000000000
  0.2000000029999995  0.0000000000000000  0.2000000029999995
  0.2000000029999995  0.0000000000000000  0.4000000059999991
  0.2000000029999995  0.0000000000000000  0.6000000240000034
  0.2000000029999995  0.0000000000000000  0.8000000119999982
  0.2000000029999995  0.2000000029999995  0.0000000000000000
  0.2000000029999995  0.2000000029999995  0.2000000029999995
  0.2000000029999995  0.2000000029999995  0.4000000059999991
  0.2000000029999995  0.2000000029999995  0.6000000240000034
  0.2000000029999995  0.2000000029999995  0.8000000119999982
  0.2000000029999995  0.4000000059999991  0.0000000000000000
  0.2000000029999995  0.4000000059999991  0.2000000029999995
  0.2000000029999995  0.4000000059999991  0.4000000059999991
  0.2000000029999995  0.4000000059999991  0.6000000240000034
  0.2000000029999995  0.4000000059999991  0.8000000119999982
  0.2000000029999995  0.6000000240000034  0.0000000000000000
  0.2000000029999995  0.6000000240000034  0.2000000029999995
  0.2000000029999995  0.6000000240000034  0.4000000059999991
  0.2000000029999995  0.6000000240000034  0.6000000240000034
  0.2000000029999995  0.6000000240000034  0.8000000119999982
  0.2000000029999995  0.8000000119999982  0.0000000000000000
  0.2000000029999995  0.8000000119999982  0.2000000029999995
  0.2000000029999995  0.8000000119999982  0.4000000059999991
  0.2000000029999995  0.8000000119999982  0.6000000240000034
  0.2000000029999995  0.8000000119999982  0.8000000119999982
  0.4000000059999991  0.0000000000000000  0.0000000000000000
  0.4000000059999991  0.0000000000000000  0.2000000029999995
  0.4000000059999991  0.0000000000000000  0.4000000059999991
  0.4000000059999991  0.0000000000000000  0.6000000240000034
  0.4000000059999991  0.0000000000000000  0.8000000119999982
  0.4000000059999991  0.2000000029999995  0.0000000000000000
  0.4000000059999991  0.2000000029999995  0.2000000029999995
  0.4000000059999991  0.2000000029999995  0.4000000059999991
  0.4000000059999991  0.2000000029999995  0.6000000240000034
  0.4000000059999991  0.2000000029999995  0.8000000119999982
  0.4000000059999991  0.4000000059999991  0.0000000000000000
  0.4000000059999991  0.4000000059999991  0.2000000029999995
  0.4000000059999991  0.4000000059999991  0.4000000059999991
  0.4000000059999991  0.4000000059999991  0.6000000240000034
  0.4000000059999991  0.4000000059999991  0.8000000119999982
  0.4000000059999991  0.6000000240000034  0.0000000000000000
  0.4000000059999991  0.6000000240000034  0.2000000029999995
  0.4000000059999991  0.6000000240000034  0.4000000059999991
  0.4000000059999991  0.6000000240000034  0.6000000240000034
  0.4000000059999991  0.6000000240000034  0.8000000119999982
  0.4000000059999991  0.8000000119999982  0.0000000000000000
  0.4000000059999991  0.8000000119999982  0.2000000029999995
  0.4000000059999991  0.8000000119999982  0.4000000059999991
  0.4000000059999991  0.8000000119999982  0.6000000240000034
  0.4000000059999991  0.8000000119999982  0.8000000119999982
  0.6000000240000034  0.0000000000000000  0.0000000000000000
  0.6000000240000034  0.0000000000000000  0.2000000029999995
  0.6000000240000034  0.0000000000000000  0.4000000059999991
  0.6000000240000034  0.0000000000000000  0.6000000240000034
  0.6000000240000034  0.0000000000000000  0.8000000119999982
  0.6000000240000034  0.2000000029999995  0.0000000000000000
  0.6000000240000034  0.2000000029999995  0.2000000029999995
  0.6000000240000034  0.2000000029999995  0.4000000059999991
  0.6000000240000034  0.2000000029999995  0.6000000240000034
  0.6000000240000034  0.2000000029999995  0.8000000119999982
  0.6000000240000034  0.4000000059999991  0.0000000000000000
  0.6000000240000034  0.4000000059999991  0.2000000029999995
  0.6000000240000034  0.4000000059999991  0.4000000059999991
  0.6000000240000034  0.4000000059999991  0.6000000240000034
  0.6000000240000034  0.4000000059999991  0.8000000119999982
  0.6000000240000034  0.6000000240000034  0.0000000000000000
  0.6000000240000034  0.6000000240000034  0.2000000029999995
  0.6000000240000034  0.6000000240000034  0.4000000059999991
  0.6000000240000034  0.6000000240000034  0.6000000240000034
  0.6000000240000034  0.6000000240000034  0.8000000119999982
  0.6000000240000034  0.8000000119999982  0.0000000000000000
  0.6000000240000034  0.8000000119999982  0.2000000029999995
  0.6000000240000034  0.8000000119999982  0.4000000059999991
  0.6000000240000034  0.8000000119999982  0.6000000240000034
  0.6000000240000034  0.8000000119999982  0.8000000119999982
  0.8000000119999982  0.0000000000000000  0.0000000000000000
  0.8000000119999982  0.0000000000000000  0.2000000029999995
  0.8000000119999982  0.0000000000000000  0.4000000059999991
  0.8000000119999982  0.0000000000000000  0.6000000240000034
  0.8000000119999982  0.0000000000000000  0.8000000119999982
  0.8000000119999982  0.2000000029999995  0.0000000000000000
  0.8000000119999982  0.2000000029999995  0.2000000029999995
  0.8000000119999982  0.2000000029999995  0.4000000059999991
  0.8000000119999982  0.2000000029999995  0.6000000240000034
  0.8000000119999982  0.2000000029999995  0.8000000119999982
  0.8000000119999982  0.4000000059999991  0.0000000000000000
  0.8000000119999982  0.4000000059999991  0.2000000029999995
  0.8000000119999982  0.4000000059999991  0.4000000059999991
  0.8000000119999982  0.4000000059999991  0.6000000240000034
  0.8000000119999982  0.4000000059999991  0.8000000119999982
  0.8000000119999982  0.6000000240000034  0.0000000000000000
  0.8000000119999982  0.6000000240000034  0.2000000029999995
  0.8000000119999982  0.6000000240000034  0.4000000059999991
  0.8000000119999982  0.6000000240000034  0.6000000240000034
  0.8000000119999982  0.6000000240000034  0.8000000119999982
  0.8000000119999982  0.8000000119999982  0.0000000000000000
  0.8000000119999982  0.8000000119999982  0.2000000029999995
  0.8000000119999982  0.8000000119999982  0.4000000059999991
  0.8000000119999982  0.8000000119999982  0.6000000240000034
  0.8000000119999982  0.8000000119999982  0.8000000119999982
  0.1000000009999980  0.1000000009999980  0.1000000009999980
  0.1000000009999980  0.1000000009999980  0.3000000119999982
  0.1000000009999980  0.1000000009999980  0.5000000000000000
  0.1000000009999980  0.1000000009999980  0.6999999880000018
  0.1000000009999980  0.1000000009999980  0.8999999759999966
  0.1000000009999980  0.3000000119999982  0.1000000009999980
  0.1000000009999980  0.3000000119999982  0.3000000119999982
  0.1000000009999980  0.3000000119999982  0.5000000000000000
  0.1000000009999980  0.3000000119999982  0.6999999880000018
  0.1000000009999980  0.3000000119999982  0.8999999759999966
  0.1000000009999980  0.5000000000000000  0.1000000009999980
  0.1000000009999980  0.5000000000000000  0.3000000119999982
  0.1000000009999980  0.5000000000000000  0.5000000000000000
  0.1000000009999980  0.5000000000000000  0.6999999880000018
  0.1000000009999980  0.5000000000000000  0.8999999759999966
  0.1000000009999980  0.6999999880000018  0.1000000009999980
  0.1000000009999980  0.6999999880000018  0.3000000119999982
  0.1000000009999980  0.6999999880000018  0.5000000000000000
  0.1000000009999980  0.6999999880000018  0.6999999880000018
  0.1000000009999980  0.6999999880000018  0.8999999759999966
  0.1000000009999980  0.8999999759999966  0.1000000009999980
  0.1000000009999980  0.8999999759999966  0.3000000119999982
  0.1000000009999980  0.8999999759999966  0.5000000000000000
  0.1000000009999980  0.8999999759999966  0.6999999880000018
  0.1000000009999980  0.8999999759999966  0.8999999759999966
  0.3000000119999982  0.1000000009999980  0.1000000009999980
  0.3000000119999982  0.1000000009999980  0.3000000119999982
  0.3000000119999982  0.1000000009999980  0.5000000000000000
  0.3000000119999982  0.1000000009999980  0.6999999880000018
  0.3000000119999982  0.1000000009999980  0.8999999759999966
  0.3000000119999982  0.3000000119999982  0.1000000009999980
  0.3000000119999982  0.3000000119999982  0.3000000119999982
  0.3000000119999982  0.3000000119999982  0.5000000000000000
  0.3000000119999982  0.3000000119999982  0.6999999880000018
  0.3000000119999982  0.3000000119999982  0.8999999759999966
  0.3000000119999982  0.5000000000000000  0.1000000009999980
  0.3000000119999982  0.5000000000000000  0.3000000119999982
  0.3000000119999982  0.5000000000000000  0.5000000000000000
  0.3000000119999982  0.5000000000000000  0.6999999880000018
  0.3000000119999982  0.5000000000000000  0.8999999759999966
  0.3000000119999982  0.6999999880000018  0.1000000009999980
  0.3000000119999982  0.6999999880000018  0.3000000119999982
  0.3000000119999982  0.6999999880000018  0.5000000000000000
  0.3000000119999982  0.6999999880000018  0.6999999880000018
  0.3000000119999982  0.6999999880000018  0.8999999759999966
  0.3000000119999982  0.8999999759999966  0.1000000009999980
  0.3000000119999982  0.8999999759999966  0.3000000119999982
  0.3000000119999982  0.8999999759999966  0.5000000000000000
  0.3000000119999982  0.8999999759999966  0.6999999880000018
  0.3000000119999982  0.8999999759999966  0.8999999759999966
  0.5000000000000000  0.1000000009999980  0.1000000009999980
  0.5000000000000000  0.1000000009999980  0.3000000119999982
  0.5000000000000000  0.1000000009999980  0.5000000000000000
  0.5000000000000000  0.1000000009999980  0.6999999880000018
  0.5000000000000000  0.1000000009999980  0.8999999759999966
  0.5000000000000000  0.3000000119999982  0.1000000009999980
  0.5000000000000000  0.3000000119999982  0.3000000119999982
  0.5000000000000000  0.3000000119999982  0.5000000000000000
  0.5000000000000000  0.3000000119999982  0.6999999880000018
  0.5000000000000000  0.3000000119999982  0.8999999759999966
  0.5000000000000000  0.5000000000000000  0.1000000009999980
  0.5000000000000000  0.5000000000000000  0.3000000119999982
  0.5000000000000000  0.5000000000000000  0.5000000000000000
  0.5000000000000000  0.5000000000000000  0.6999999880000018
  0.5000000000000000  0.5000000000000000  0.8999999759999966
  0.5000000000000000  0.6999999880000018  0.1000000009999980
  0.5000000000000000  0.6999999880000018  0.3000000119999982
  0.5000000000000000  0.6999999880000018  0.5000000000000000
  0.5000000000000000  0.6999999880000018  0.6999999880000018
  0.5000000000000000  0.6999999880000018  0.8999999759999966
  0.5000000000000000  0.8999999759999966  0.1000000009999980
  0.5000000000000000  0.8999999759999966  0.3000000119999982
  0.5000000000000000  0.8999999759999966  0.5000000000000000
  0.5000000000000000  0.8999999759999966  0.6999999880000018
  0.5000000000000000  0.8999999759999966  0.8999999759999966
  0.6999999880000018  0.1000000009999980  0.1000000009999980
  0.6999999880000018  0.1000000009999980  0.3000000119999982
  0.6999999880000018  0.1000000009999980  0.5000000000000000
  0.6999999880000018  0.1000000009999980  0.6999999880000018
  0.6999999880000018  0.1000000009999980  0.8999999759999966
  0.6999999880000018  0.3000000119999982  0.1000000009999980
  0.6999999880000018  0.3000000119999982  0.3000000119999982
  0.6999999880000018  0.3000000119999982  0.5000000000000000
  0.6999999880000018  0.3000000119999982  0.6999999880000018
  0.6999999880000018  0.3000000119999982  0.8999999759999966
  0.6999999880000018  0.5000000000000000  0.1000000009999980
  0.6999999880000018  0.5000000000000000  0.3000000119999982
  0.6999999880000018  0.5000000000000000  0.5000000000000000
  0.6999999880000018  0.5000000000000000  0.6999999880000018
  0.6999999880000018  0.5000000000000000  0.8999999759999966
  0.6999999880000018  0.6999999880000018  0.1000000009999980
  0.6999999880000018  0.6999999880000018  0.3000000119999982
  0.6999999880000018  0.6999999880000018  0.5000000000000000
  0.6999999880000018  0.6999999880000018  0.6999999880000018
  0.6999999880000018  0.6999999880000018  0.8999999759999966
  0.6999999880000018  0.8999999759999966  0.1000000009999980
  0.6999999880000018  0.8999999759999966  0.3000000119999982
  0.6999999880000018  0.8999999759999966  0.5000000000000000
  0.6999999880000018  0.8999999759999966  0.6999999880000018
  0.6999999880000018  0.8999999759999966  0.8999999759999966
  0.8999999759999966  0.1000000009999980  0.1000000009999980
  0.8999999759999966  0.1000000009999980  0.3000000119999982
  0.8999999759999966  0.1000000009999980  0.5000000000000000
  0.8999999759999966  0.1000000009999980  0.6999999880000018
  0.8999999759999966  0.1000000009999980  0.8999999759999966
  0.8999999759999966  0.3000000119999982  0.1000000009999980
  0.8999999759999966  0.3000000119999982  0.3000000119999982
  0.8999999759999966  0.3000000119999982  0.5000000000000000
  0.8999999759999966  0.3000000119999982  0.6999999880000018
  0.8999999759999966  0.3000000119999982  0.8999999759999966
  0.8999999759999966  0.5000000000000000  0.1000000009999980
  0.8999999759999966  0.5000000000000000  0.3000000119999982
  0.8999999759999966  0.5000000000000000  0.5000000000000000
  0.8999999759999966  0.5000000000000000  0.6999999880000018
  0.8999999759999966  0.5000000000000000  0.8999999759999966
  0.8999999759999966  0.6999999880000018  0.1000000009999980
  0.8999999759999966  0.6999999880000018  0.3000000119999982
  0.8999999759999966  0.6999999880000018  0.5000000000000000
  0.8999999759999966  0.6999999880000018  0.6999999880000018
  0.8999999759999966  0.6999999880000018  0.8999999759999966
  0.8999999759999966  0.8999999759999966  0.1000000009999980
  0.8999999759999966  0.8999999759999966  0.3000000119999982
  0.8999999759999966  0.8999999759999966  0.5000000000000000
  0.8999999759999966  0.8999999759999966  0.6999999880000018
  0.8999999759999966  0.8999999759999966  0.8999999759999966
 
  0.00000000E+00  0.00000000E+00  0.00000000E+00
  0.00000000E+00  0.00000000E+00  0.00000000E+00
  0.00000000E+00  0.00000000E+00  0.00000000E+00
  0.00000000E+00  0.00000000E+00  0.00000000E+00
  0.00000000E+00  0.00000000E+00  0.00000000E+00
  0.00000000E+00  0.00000000E+00  0.00000000E+00
  0.00000000E+00  0.00000000E+00  0.00000000E+00
  0.00000000E+00  0.00000000E+00  0.00000000E+00
  0.00000000E+00  0.00000000E+00  0.00000000E+00
  0.00000000E+00  0.00000000E+00  0.00000000E+00
  0.00000000E+00  0.00000000E+00  0.00000000E+00
  0.00000000E+00  0.00000000E+00  0.00000000E+00
  0.00000000E+00  0.00000000E+00  0.00000000E+00
  0.00000000E+00  0.00000000E+00  0.00000000E+00
  0.00000000E+00  0.00000000E+00  0.00000000E+00
  0.00000000E+00  0.00000000E+00  0.00000000E+00
  0.00000000E+00  0.00000000E+00  0.00000000E+00
  0.00000000E+00  0.00000000E+00  0.00000000E+00
  0.00000000E+00  0.00000000E+00  0.00000000E+00
  0.00000000E+00  0.00000000E+00  0.00000000E+00
  0.00000000E+00  0.00000000E+00  0.00000000E+00
  0.00000000E+00  0.00000000E+00  0.00000000E+00
  0.00000000E+00  0.00000000E+00  0.00000000E+00
  0.00000000E+00  0.00000000E+00  0.00000000E+00
  0.00000000E+00  0.00000000E+00  0.00000000E+00
  0.00000000E+00  0.00000000E+00  0.00000000E+00
  0.00000000E+00  0.00000000E+00  0.00000000E+00
  0.00000000E+00  0.00000000E+00  0.00000000E+00
  0.00000000E+00  0.00000000E+00  0.00000000E+00
  0.00000000E+00  0.00000000E+00  0.00000000E+00
  0.00000000E+00  0.00000000E+00  0.00000000E+00
  0.00000000E+00  0.00000000E+00  0.00000000E+00
  0.00000000E+00  0.00000000E+00  0.00000000E+00
  0.00000000E+00  0.00000000E+00  0.00000000E+00
  0.00000000E+00  0.00000000E+00  0.00000000E+00
  0.00000000E+00  0.00000000E+00  0.00000000E+00
  0.00000000E+00  0.00000000E+00  0.00000000E+00
  0.00000000E+00  0.00000000E+00  0.00000000E+00
  0.00000000E+00  0.00000000E+00  0.00000000E+00
  0.00000000E+00  0.00000000E+00  0.00000000E+00
  0.00000000E+00  0.00000000E+00  0.00000000E+00
  0.00000000E+00  0.00000000E+00  0.00000000E+00
  0.00000000E+00  0.00000000E+00  0.00000000E+00
  0.00000000E+00  0.00000000E+00  0.00000000E+00
  0.00000000E+00  0.00000000E+00  0.00000000E+00
  0.00000000E+00  0.00000000E+00  0.00000000E+00
  0.00000000E+00  0.00000000E+00  0.00000000E+00
  0.00000000E+00  0.00000000E+00  0.00000000E+00
  0.00000000E+00  0.00000000E+00  0.00000000E+00
  0.00000000E+00  0.00000000E+00  0.00000000E+00
  0.00000000E+00  0.00000000E+00  0.00000000E+00
  0.00000000E+00  0.00000000E+00  0.00000000E+00
  0.00000000E+00  0.00000000E+00  0.00000000E+00
  0.00000000E+00  0.00000000E+00  0.00000000E+00
  0.00000000E+00  0.00000000E+00  0.00000000E+00
  0.00000000E+00  0.00000000E+00  0.00000000E+00
  0.00000000E+00  0.00000000E+00  0.00000000E+00
  0.00000000E+00  0.00000000E+00  0.00000000E+00
  0.00000000E+00  0.00000000E+00  0.00000000E+00
  0.00000000E+00  0.00000000E+00  0.00000000E+00
  0.00000000E+00  0.00000000E+00  0.00000000E+00
  0.00000000E+00  0.00000000E+00  0.00000000E+00
  0.00000000E+00  0.00000000E+00  0.00000000E+00
  0.00000000E+00  0.00000000E+00  0.00000000E+00
  0.00000000E+00  0.00000000E+00  0.00000000E+00
  0.00000000E+00  0.00000000E+00  0.00000000E+00
  0.00000000E+00  0.00000000E+00  0.00000000E+00
  0.00000000E+00  0.00000000E+00  0.00000000E+00
  0.00000000E+00  0.00000000E+00  0.00000000E+00
  0.00000000E+00  0.00000000E+00  0.00000000E+00
  0.00000000E+00  0.00000000E+00  0.00000000E+00
  0.00000000E+00  0.00000000E+00  0.00000000E+00
  0.00000000E+00  0.00000000E+00  0.00000000E+00
  0.00000000E+00  0.00000000E+00  0.00000000E+00
  0.00000000E+00  0.00000000E+00  0.00000000E+00
  0.00000000E+00  0.00000000E+00  0.00000000E+00
  0.00000000E+00  0.00000000E+00  0.00000000E+00
  0.00000000E+00  0.00000000E+00  0.00000000E+00
  0.00000000E+00  0.00000000E+00  0.00000000E+00
  0.00000000E+00  0.00000000E+00  0.00000000E+00
  0.00000000E+00  0.00000000E+00  0.00000000E+00
  0.00000000E+00  0.00000000E+00  0.00000000E+00
  0.00000000E+00  0.00000000E+00  0.00000000E+00
  0.00000000E+00  0.00000000E+00  0.00000000E+00
  0.00000000E+00  0.00000000E+00  0.00000000E+00
  0.00000000E+00  0.00000000E+00  0.00000000E+00
  0.00000000E+00  0.00000000E+00  0.00000000E+00
  0.00000000E+00  0.00000000E+00  0.00000000E+00
  0.00000000E+00  0.00000000E+00  0.00000000E+00
  0.00000000E+00  0.00000000E+00  0.00000000E+00
  0.00000000E+00  0.00000000E+00  0.00000000E+00
  0.00000000E+00  0.00000000E+00  0.00000000E+00
  0.00000000E+00  0.00000000E+00  0.00000000E+00
  0.00000000E+00  0.00000000E+00  0.00000000E+00
  0.00000000E+00  0.00000000E+00  0.00000000E+00
  0.00000000E+00  0.00000000E+00  0.00000000E+00
  0.00000000E+00  0.00000000E+00  0.00000000E+00
  0.00000000E+00  0.00000000E+00  0.00000000E+00
  0.00000000E+00  0.00000000E+00  0.00000000E+00
  0.00000000E+00  0.00000000E+00  0.00000000E+00
  0.00000000E+00  0.00000000E+00  0.00000000E+00
  0.00000000E+00  0.00000000E+00  0.00000000E+00
  0.00000000E+00  0.00000000E+00  0.00000000E+00
  0.00000000E+00  0.00000000E+00  0.00000000E+00
  0.00000000E+00  0.00000000E+00  0.00000000E+00
  0.00000000E+00  0.00000000E+00  0.00000000E+00
  0.00000000E+00  0.00000000E+00  0.00000000E+00
  0.00000000E+00  0.00000000E+00  0.00000000E+00
  0.00000000E+00  0.00000000E+00  0.00000000E+00
  0.00000000E+00  0.00000000E+00  0.00000000E+00
  0.00000000E+00  0.00000000E+00  0.00000000E+00
  0.00000000E+00  0.00000000E+00  0.00000000E+00
  0.00000000E+00  0.00000000E+00  0.00000000E+00
  0.00000000E+00  0.00000000E+00  0.00000000E+00
  0.00000000E+00  0.00000000E+00  0.00000000E+00
  0.00000000E+00  0.00000000E+00  0.00000000E+00
  0.00000000E+00  0.00000000E+00  0.00000000E+00
  0.00000000E+00  0.00000000E+00  0.00000000E+00
  0.00000000E+00  0.00000000E+00  0.00000000E+00
  0.00000000E+00  0.00000000E+00  0.00000000E+00
  0.00000000E+00  0.00000000E+00  0.00000000E+00
  0.00000000E+00  0.00000000E+00  0.00000000E+00
  0.00000000E+00  0.00000000E+00  0.00000000E+00
  0.00000000E+00  0.00000000E+00  0.00000000E+00
  0.00000000E+00  0.00000000E+00  0.00000000E+00
  0.00000000E+00  0.00000000E+00  0.00000000E+00
  0.00000000E+00  0.00000000E+00  0.00000000E+00
  0.00000000E+00  0.00000000E+00  0.00000000E+00
  0.00000000E+00  0.00000000E+00  0.00000000E+00
  0.00000000E+00  0.00000000E+00  0.00000000E+00
  0.00000000E+00  0.00000000E+00  0.00000000E+00
  0.00000000E+00  0.00000000E+00  0.00000000E+00
  0.00000000E+00  0.00000000E+00  0.00000000E+00
  0.00000000E+00  0.00000000E+00  0.00000000E+00
  0.00000000E+00  0.00000000E+00  0.00000000E+00
  0.00000000E+00  0.00000000E+00  0.00000000E+00
  0.00000000E+00  0.00000000E+00  0.00000000E+00
  0.00000000E+00  0.00000000E+00  0.00000000E+00
  0.00000000E+00  0.00000000E+00  0.00000000E+00
  0.00000000E+00  0.00000000E+00  0.00000000E+00
  0.00000000E+00  0.00000000E+00  0.00000000E+00
  0.00000000E+00  0.00000000E+00  0.00000000E+00
  0.00000000E+00  0.00000000E+00  0.00000000E+00
  0.00000000E+00  0.00000000E+00  0.00000000E+00
  0.00000000E+00  0.00000000E+00  0.00000000E+00
  0.00000000E+00  0.00000000E+00  0.00000000E+00
  0.00000000E+00  0.00000000E+00  0.00000000E+00
  0.00000000E+00  0.00000000E+00  0.00000000E+00
  0.00000000E+00  0.00000000E+00  0.00000000E+00
  0.00000000E+00  0.00000000E+00  0.00000000E+00
  0.00000000E+00  0.00000000E+00  0.00000000E+00
  0.00000000E+00  0.00000000E+00  0.00000000E+00
  0.00000000E+00  0.00000000E+00  0.00000000E+00
  0.00000000E+00  0.00000000E+00  0.00000000E+00
  0.00000000E+00  0.00000000E+00  0.00000000E+00
  0.00000000E+00  0.00000000E+00  0.00000000E+00
  0.00000000E+00  0.00000000E+00  0.00000000E+00
  0.00000000E+00  0.00000000E+00  0.00000000E+00
  0.00000000E+00  0.00000000E+00  0.00000000E+00
  0.00000000E+00  0.00000000E+00  0.00000000E+00
  0.00000000E+00  0.00000000E+00  0.00000000E+00
  0.00000000E+00  0.00000000E+00  0.00000000E+00
  0.00000000E+00  0.00000000E+00  0.00000000E+00
  0.00000000E+00  0.00000000E+00  0.00000000E+00
  0.00000000E+00  0.00000000E+00  0.00000000E+00
  0.00000000E+00  0.00000000E+00  0.00000000E+00
  0.00000000E+00  0.00000000E+00  0.00000000E+00
  0.00000000E+00  0.00000000E+00  0.00000000E+00
  0.00000000E+00  0.00000000E+00  0.00000000E+00
  0.00000000E+00  0.00000000E+00  0.00000000E+00
  0.00000000E+00  0.00000000E+00  0.00000000E+00
  0.00000000E+00  0.00000000E+00  0.00000000E+00
  0.00000000E+00  0.00000000E+00  0.00000000E+00
  0.00000000E+00  0.00000000E+00  0.00000000E+00
  0.00000000E+00  0.00000000E+00  0.00000000E+00
  0.00000000E+00  0.00000000E+00  0.00000000E+00
  0.00000000E+00  0.00000000E+00  0.00000000E+00
  0.00000000E+00  0.00000000E+00  0.00000000E+00
  0.00000000E+00  0.00000000E+00  0.00000000E+00
  0.00000000E+00  0.00000000E+00  0.00000000E+00
  0.00000000E+00  0.00000000E+00  0.00000000E+00
  0.00000000E+00  0.00000000E+00  0.00000000E+00
  0.00000000E+00  0.00000000E+00  0.00000000E+00
  0.00000000E+00  0.00000000E+00  0.00000000E+00
  0.00000000E+00  0.00000000E+00  0.00000000E+00
  0.00000000E+00  0.00000000E+00  0.00000000E+00
  0.00000000E+00  0.00000000E+00  0.00000000E+00
  0.00000000E+00  0.00000000E+00  0.00000000E+00
  0.00000000E+00  0.00000000E+00  0.00000000E+00
  0.00000000E+00  0.00000000E+00  0.00000000E+00
  0.00000000E+00  0.00000000E+00  0.00000000E+00
  0.00000000E+00  0.00000000E+00  0.00000000E+00
  0.00000000E+00  0.00000000E+00  0.00000000E+00
  0.00000000E+00  0.00000000E+00  0.00000000E+00
  0.00000000E+00  0.00000000E+00  0.00000000E+00
  0.00000000E+00  0.00000000E+00  0.00000000E+00
  0.00000000E+00  0.00000000E+00  0.00000000E+00
  0.00000000E+00  0.00000000E+00  0.00000000E+00
  0.00000000E+00  0.00000000E+00  0.00000000E+00
  0.00000000E+00  0.00000000E+00  0.00000000E+00
  0.00000000E+00  0.00000000E+00  0.00000000E+00
  0.00000000E+00  0.00000000E+00  0.00000000E+00
  0.00000000E+00  0.00000000E+00  0.00000000E+00
  0.00000000E+00  0.00000000E+00  0.00000000E+00
  0.00000000E+00  0.00000000E+00  0.00000000E+00
  0.00000000E+00  0.00000000E+00  0.00000000E+00
  0.00000000E+00  0.00000000E+00  0.00000000E+00
  0.00000000E+00  0.00000000E+00  0.00000000E+00
  0.00000000E+00  0.00000000E+00  0.00000000E+00
  0.00000000E+00  0.00000000E+00  0.00000000E+00
  0.00000000E+00  0.00000000E+00  0.00000000E+00
  0.00000000E+00  0.00000000E+00  0.00000000E+00
  0.00000000E+00  0.00000000E+00  0.00000000E+00
  0.00000000E+00  0.00000000E+00  0.00000000E+00
  0.00000000E+00  0.00000000E+00  0.00000000E+00
  0.00000000E+00  0.00000000E+00  0.00000000E+00
  0.00000000E+00  0.00000000E+00  0.00000000E+00
  0.00000000E+00  0.00000000E+00  0.00000000E+00
  0.00000000E+00  0.00000000E+00  0.00000000E+00
  0.00000000E+00  0.00000000E+00  0.00000000E+00
  0.00000000E+00  0.00000000E+00  0.00000000E+00
  0.00000000E+00  0.00000000E+00  0.00000000E+00
  0.00000000E+00  0.00000000E+00  0.00000000E+00
  0.00000000E+00  0.00000000E+00  0.00000000E+00
  0.00000000E+00  0.00000000E+00  0.00000000E+00
  0.00000000E+00  0.00000000E+00  0.00000000E+00
  0.00000000E+00  0.00000000E+00  0.00000000E+00
  0.00000000E+00  0.00000000E+00  0.00000000E+00
  0.00000000E+00  0.00000000E+00  0.00000000E+00
  0.00000000E+00  0.00000000E+00  0.00000000E+00
  0.00000000E+00  0.00000000E+00  0.00000000E+00
  0.00000000E+00  0.00000000E+00  0.00000000E+00
  0.00000000E+00  0.00000000E+00  0.00000000E+00
  0.00000000E+00  0.00000000E+00  0.00000000E+00
  0.00000000E+00  0.00000000E+00  0.00000000E+00
  0.00000000E+00  0.00000000E+00  0.00000000E+00
  0.00000000E+00  0.00000000E+00  0.00000000E+00
  0.00000000E+00  0.00000000E+00  0.00000000E+00
  0.00000000E+00  0.00000000E+00  0.00000000E+00
  0.00000000E+00  0.00000000E+00  0.00000000E+00
  0.00000000E+00  0.00000000E+00  0.00000000E+00
  0.00000000E+00  0.00000000E+00  0.00000000E+00
  0.00000000E+00  0.00000000E+00  0.00000000E+00
  0.00000000E+00  0.00000000E+00  0.00000000E+00
  0.00000000E+00  0.00000000E+00  0.00000000E+00
  0.00000000E+00  0.00000000E+00  0.00000000E+00
  0.00000000E+00  0.00000000E+00  0.00000000E+00
  0.00000000E+00  0.00000000E+00  0.00000000E+00
  0.00000000E+00  0.00000000E+00  0.00000000E+00
  0.00000000E+00  0.00000000E+00  0.00000000E+00
