New structure                           
1.0
       10.5415000916         0.0000000000         0.0000000000
        5.2707500458         9.1292068733         0.0000000000
        0.0000000000         0.0000000000        10.5415000916
   Ni    O
  125  125
Direct
     0.000000000         0.000000000         0.000000000
     0.000000000         0.000000000         0.200000003
     0.000000000         0.000000000         0.400000006
     0.000000000         0.000000000         0.600000024
     0.000000000         0.000000000         0.800000012
     0.000000000         0.200000003         0.000000000
     0.000000000         0.200000003         0.200000003
     0.000000000         0.200000003         0.400000006
     0.000000000         0.200000003         0.600000024
     0.000000000         0.200000003         0.800000012
     0.000000000         0.400000006         0.000000000
     0.000000000         0.400000006         0.200000003
     0.000000000         0.400000006         0.400000006
     0.000000000         0.400000006         0.600000024
     0.000000000         0.400000006         0.800000012
     0.000000000         0.600000024         0.000000000
     0.000000000         0.600000024         0.200000003
     0.000000000         0.600000024         0.400000006
     0.000000000         0.600000024         0.600000024
     0.000000000         0.600000024         0.800000012
     0.000000000         0.800000012         0.000000000
     0.000000000         0.800000012         0.200000003
     0.000000000         0.800000012         0.400000006
     0.000000000         0.800000012         0.600000024
     0.000000000         0.800000012         0.800000012
     0.200000003         0.000000000         0.000000000
     0.200000003         0.000000000         0.200000003
     0.200000003         0.000000000         0.400000006
     0.200000003         0.000000000         0.600000024
     0.200000003         0.000000000         0.800000012
     0.200000003         0.200000003         0.000000000
     0.200000003         0.200000003         0.200000003
     0.200000003         0.200000003         0.400000006
     0.200000003         0.200000003         0.600000024
     0.200000003         0.200000003         0.800000012
     0.200000003         0.400000006         0.000000000
     0.200000003         0.400000006         0.200000003
     0.200000003         0.400000006         0.400000006
     0.200000003         0.400000006         0.600000024
     0.200000003         0.400000006         0.800000012
     0.200000003         0.600000024         0.000000000
     0.200000003         0.600000024         0.200000003
     0.200000003         0.600000024         0.400000006
     0.200000003         0.600000024         0.600000024
     0.200000003         0.600000024         0.800000012
     0.200000003         0.800000012         0.000000000
     0.200000003         0.800000012         0.200000003
     0.200000003         0.800000012         0.400000006
     0.200000003         0.800000012         0.600000024
     0.200000003         0.800000012         0.800000012
     0.400000006         0.000000000         0.000000000
     0.400000006         0.000000000         0.200000003
     0.400000006         0.000000000         0.400000006
     0.400000006         0.000000000         0.600000024
     0.400000006         0.000000000         0.800000012
     0.400000006         0.200000003         0.000000000
     0.400000006         0.200000003         0.200000003
     0.400000006         0.200000003         0.400000006
     0.400000006         0.200000003         0.600000024
     0.400000006         0.200000003         0.800000012
     0.400000006         0.400000006         0.000000000
     0.400000006         0.400000006         0.200000003
     0.400000006         0.400000006         0.400000006
     0.400000006         0.400000006         0.600000024
     0.400000006         0.400000006         0.800000012
     0.400000006         0.600000024         0.000000000
     0.400000006         0.600000024         0.200000003
     0.400000006         0.600000024         0.400000006
     0.400000006         0.600000024         0.600000024
     0.400000006         0.600000024         0.800000012
     0.400000006         0.800000012         0.000000000
     0.400000006         0.800000012         0.200000003
     0.400000006         0.800000012         0.400000006
     0.400000006         0.800000012         0.600000024
     0.400000006         0.800000012         0.800000012
     0.600000024         0.000000000         0.000000000
     0.600000024         0.000000000         0.200000003
     0.600000024         0.000000000         0.400000006
     0.600000024         0.000000000         0.600000024
     0.600000024         0.000000000         0.800000012
     0.600000024         0.200000003         0.000000000
     0.600000024         0.200000003         0.200000003
     0.600000024         0.200000003         0.400000006
     0.600000024         0.200000003         0.600000024
     0.600000024         0.200000003         0.800000012
     0.600000024         0.400000006         0.000000000
     0.600000024         0.400000006         0.200000003
     0.600000024         0.400000006         0.400000006
     0.600000024         0.400000006         0.600000024
     0.600000024         0.400000006         0.800000012
     0.600000024         0.600000024         0.000000000
     0.600000024         0.600000024         0.200000003
     0.600000024         0.600000024         0.400000006
     0.600000024         0.600000024         0.600000024
     0.600000024         0.600000024         0.800000012
     0.600000024         0.800000012         0.000000000
     0.600000024         0.800000012         0.200000003
     0.600000024         0.800000012         0.400000006
     0.600000024         0.800000012         0.600000024
     0.600000024         0.800000012         0.800000012
     0.800000012         0.000000000         0.000000000
     0.800000012         0.000000000         0.200000003
     0.800000012         0.000000000         0.400000006
     0.800000012         0.000000000         0.600000024
     0.800000012         0.000000000         0.800000012
     0.800000012         0.200000003         0.000000000
     0.800000012         0.200000003         0.200000003
     0.800000012         0.200000003         0.400000006
     0.800000012         0.200000003         0.600000024
     0.800000012         0.200000003         0.800000012
     0.800000012         0.400000006         0.000000000
     0.800000012         0.400000006         0.200000003
     0.800000012         0.400000006         0.400000006
     0.800000012         0.400000006         0.600000024
     0.800000012         0.400000006         0.800000012
     0.800000012         0.600000024         0.000000000
     0.800000012         0.600000024         0.200000003
     0.800000012         0.600000024         0.400000006
     0.800000012         0.600000024         0.600000024
     0.800000012         0.600000024         0.800000012
     0.800000012         0.800000012         0.000000000
     0.800000012         0.800000012         0.200000003
     0.800000012         0.800000012         0.400000006
     0.800000012         0.800000012         0.600000024
     0.800000012         0.800000012         0.800000012
     0.100000001         0.100000001         0.100000001
     0.100000001         0.100000001         0.300000012
     0.100000001         0.100000001         0.500000000
     0.100000001         0.100000001         0.699999988
     0.100000001         0.100000001         0.899999976
     0.100000001         0.300000012         0.100000001
     0.100000001         0.300000012         0.300000012
     0.100000001         0.300000012         0.500000000
     0.100000001         0.300000012         0.699999988
     0.100000001         0.300000012         0.899999976
     0.100000001         0.500000000         0.100000001
     0.100000001         0.500000000         0.300000012
     0.100000001         0.500000000         0.500000000
     0.100000001         0.500000000         0.699999988
     0.100000001         0.500000000         0.899999976
     0.100000001         0.699999988         0.100000001
     0.100000001         0.699999988         0.300000012
     0.100000001         0.699999988         0.500000000
     0.100000001         0.699999988         0.699999988
     0.100000001         0.699999988         0.899999976
     0.100000001         0.899999976         0.100000001
     0.100000001         0.899999976         0.300000012
     0.100000001         0.899999976         0.500000000
     0.100000001         0.899999976         0.699999988
     0.100000001         0.899999976         0.899999976
     0.300000012         0.100000001         0.100000001
     0.300000012         0.100000001         0.300000012
     0.300000012         0.100000001         0.500000000
     0.300000012         0.100000001         0.699999988
     0.300000012         0.100000001         0.899999976
     0.300000012         0.300000012         0.100000001
     0.300000012         0.300000012         0.300000012
     0.300000012         0.300000012         0.500000000
     0.300000012         0.300000012         0.699999988
     0.300000012         0.300000012         0.899999976
     0.300000012         0.500000000         0.100000001
     0.300000012         0.500000000         0.300000012
     0.300000012         0.500000000         0.500000000
     0.300000012         0.500000000         0.699999988
     0.300000012         0.500000000         0.899999976
     0.300000012         0.699999988         0.100000001
     0.300000012         0.699999988         0.300000012
     0.300000012         0.699999988         0.500000000
     0.300000012         0.699999988         0.699999988
     0.300000012         0.699999988         0.899999976
     0.300000012         0.899999976         0.100000001
     0.300000012         0.899999976         0.300000012
     0.300000012         0.899999976         0.500000000
     0.300000012         0.899999976         0.699999988
     0.300000012         0.899999976         0.899999976
     0.500000000         0.100000001         0.100000001
     0.500000000         0.100000001         0.300000012
     0.500000000         0.100000001         0.500000000
     0.500000000         0.100000001         0.699999988
     0.500000000         0.100000001         0.899999976
     0.500000000         0.300000012         0.100000001
     0.500000000         0.300000012         0.300000012
     0.500000000         0.300000012         0.500000000
     0.500000000         0.300000012         0.699999988
     0.500000000         0.300000012         0.899999976
     0.500000000         0.500000000         0.100000001
     0.500000000         0.500000000         0.300000012
     0.500000000         0.500000000         0.500000000
     0.500000000         0.500000000         0.699999988
     0.500000000         0.500000000         0.899999976
     0.500000000         0.699999988         0.100000001
     0.500000000         0.699999988         0.300000012
     0.500000000         0.699999988         0.500000000
     0.500000000         0.699999988         0.699999988
     0.500000000         0.699999988         0.899999976
     0.500000000         0.899999976         0.100000001
     0.500000000         0.899999976         0.300000012
     0.500000000         0.899999976         0.500000000
     0.500000000         0.899999976         0.699999988
     0.500000000         0.899999976         0.899999976
     0.699999988         0.100000001         0.100000001
     0.699999988         0.100000001         0.300000012
     0.699999988         0.100000001         0.500000000
     0.699999988         0.100000001         0.699999988
     0.699999988         0.100000001         0.899999976
     0.699999988         0.300000012         0.100000001
     0.699999988         0.300000012         0.300000012
     0.699999988         0.300000012         0.500000000
     0.699999988         0.300000012         0.699999988
     0.699999988         0.300000012         0.899999976
     0.699999988         0.500000000         0.100000001
     0.699999988         0.500000000         0.300000012
     0.699999988         0.500000000         0.500000000
     0.699999988         0.500000000         0.699999988
     0.699999988         0.500000000         0.899999976
     0.699999988         0.699999988         0.100000001
     0.699999988         0.699999988         0.300000012
     0.699999988         0.699999988         0.500000000
     0.699999988         0.699999988         0.699999988
     0.699999988         0.699999988         0.899999976
     0.699999988         0.899999976         0.100000001
     0.699999988         0.899999976         0.300000012
     0.699999988         0.899999976         0.500000000
     0.699999988         0.899999976         0.699999988
     0.699999988         0.899999976         0.899999976
     0.899999976         0.100000001         0.100000001
     0.899999976         0.100000001         0.300000012
     0.899999976         0.100000001         0.500000000
     0.899999976         0.100000001         0.699999988
     0.899999976         0.100000001         0.899999976
     0.899999976         0.300000012         0.100000001
     0.899999976         0.300000012         0.300000012
     0.899999976         0.300000012         0.500000000
     0.899999976         0.300000012         0.699999988
     0.899999976         0.300000012         0.899999976
     0.899999976         0.500000000         0.100000001
     0.899999976         0.500000000         0.300000012
     0.899999976         0.500000000         0.500000000
     0.899999976         0.500000000         0.699999988
     0.899999976         0.500000000         0.899999976
     0.899999976         0.699999988         0.100000001
     0.899999976         0.699999988         0.300000012
     0.899999976         0.699999988         0.500000000
     0.899999976         0.699999988         0.699999988
     0.899999976         0.699999988         0.899999976
     0.899999976         0.899999976         0.100000001
     0.899999976         0.899999976         0.300000012
     0.899999976         0.899999976         0.500000000
     0.899999976         0.899999976         0.699999988
     0.899999976         0.899999976         0.899999976
