Al  O                                   
    1.000000000000000     
    17.1805725098000011    0.0000000000000000    0.0000000000000000
     8.5902872455000008   14.8788116730999995    0.0000000000000000
     0.0000000000000000    0.0000000000000000   40.0000000000000000
   Al   O 
   252   256
Direct
  0.4442785240043857  0.4442785540043811  0.0602806619307543
  0.4452804814088169  0.7773597592955913  0.0598346535296909
  0.4442784940043832  0.1114429519912357  0.0602806619307543
  0.7773596992955935  0.4452805114088123  0.0598346535296909
  0.7773597592955913  0.7773597592955913  0.0598346535296909
  0.7766936050817599  0.1116532269591208  0.0595037558162524
  0.1114428329912365  0.4442785540043811  0.0602806619307543
  0.1116532269591208  0.7766936650817577  0.0595037558162523
  0.1116531079591216  0.1116532269591208  0.0595037558162524
  0.5561268704103497  0.5561269304103476  0.1164057115706941
  0.5561268704103497  0.8877461991792951  0.1164057115706941
  0.5554510362549626  0.2222745708725190  0.1167279875134226
  0.8877461991792951  0.5561269304103476  0.1164057115706940
  0.8884366302378965  0.8884366902378944  0.1166323573042780
  0.8884366902378944  0.2231267395242071  0.1166323573042780
  0.2222744518725198  0.5554510962549605  0.1167279875134226
  0.2231266205242079  0.8884366902378944  0.1166323573042780
  0.2222744518725198  0.2222745708725190  0.1167279875134226
  0.6666666269999979  0.6666666269999979  0.1729355762996422
  0.6667095079649402 -0.0001421230353652  0.1723175843655723
  0.6667094479649353  0.3334325560704305  0.1723175843655723
 -0.0001421230353652  0.6667094479649353  0.1723175843655723
 -0.0000000000000000 -0.0000000000000000  0.1714569104293016
 -0.0001421230353652  0.3334325560704305  0.1723175843655723
  0.3334326750704297  0.6667094479649353  0.1723175843655723
  0.3334326750704297 -0.0001421230353652  0.1723175843655723
  0.3333332540000029  0.3333332540000029  0.1724970322631935
  0.7772550068589037  0.7772550068589037  0.2266801888241242
  0.7780684577376841  0.1109658006311585  0.2270874788919370
  0.7772550068589037  0.4454899862821929  0.2266801888241242
  0.1109658006311585  0.7780685177376819  0.2270874788919369
  0.1109656816311593  0.1109658006311585  0.2270874788919370
  0.1098158243342465  0.4450920878328801  0.2264229676976417
  0.4454899862821929  0.7772550068589037  0.2266801888241242
  0.4450919688328738  0.1098158243342465  0.2264229676976417
  0.4450920878328801  0.4450920878328801  0.2264229676976417
  0.8896980601602652  0.8896981201602631  0.2818991548249467
  0.8896981201602631  0.2206038796794692  0.2818991548249467
  0.8914677121254265  0.5542661439372836  0.2821669378703726
  0.2206037606794700  0.8896981201602631  0.2818991548249467
  0.2212340855489794  0.2212342045489786  0.2812931697475899
  0.2212339665489802  0.5575318289020411  0.2812931697475899
  0.5542660249372844  0.8914677721254244  0.2821669378703726
  0.5575317099020419  0.2212342045489786  0.2812931697475899
  0.5542661439372836  0.5542661439372836  0.2821669378703726
 -0.0000000000000000 -0.0000000000000000  0.3403614318333417
  0.0035752305453018  0.3314051198341826  0.3352230742633721
  0.0035752305453018  0.6650195306205166  0.3352230742633721
  0.3314052388341818  0.0035752305453018  0.3352230742633721
  0.3333332540000029  0.3333332540000029  0.3334728700336697
  0.3314051198341826  0.6650195306205166  0.3352230742633721
  0.6650195306205166  0.0035752305453018  0.3352230742633721
  0.6650196496205157  0.3314051198341826  0.3352230742633721
  0.6666667459999971  0.6666666269999979  0.3348711234979889
  0.1130438863251790  0.1130440053251782  0.3888477915089840
  0.1120894271145806  0.4439552864427131  0.3961400131365892
  0.1130438863251790  0.7739121083496427  0.3888477915089840
  0.4439551674427069  0.1120894271145806  0.3961400131365892
  0.4439552864427131  0.4439552864427131  0.3961400131365892
  0.4649590590851305  0.7675204704574350  0.3922128841084259
  0.7739121083496427  0.1130440053251782  0.3888477915089840
  0.7675205894574342  0.4649590590851306  0.3922128841084259
  0.7675203514574358  0.7675204704574350  0.3922128841084259
  0.2773597292955959  0.2773597592955913  0.0598346535296909
  0.2766936350817622  0.6116532269591208  0.0595037558162524
  0.2773597592955913  0.9452805414088152  0.0598346535296909
  0.6116531669591230  0.2766936650817576  0.0595037558162523
  0.6116531669591230  0.6116532269591208  0.0595037558162524
  0.6114428919912378  0.9442785840043834  0.0602806619307543
  0.9452804814088174  0.2773597592955913  0.0598346535296909
  0.9442785840043834  0.6114429519912357  0.0602806619307543
  0.9442785240043855  0.9442785840043834  0.0602806619307543
  0.3884366902378942  0.3884366902378942  0.1166323573042780
  0.3884366902378942  0.7231266205242082  0.1166323573042780
  0.3877462281793005  0.0561269304103479  0.1164057115706940
  0.7231266205242082  0.3884366902378942  0.1166323573042780
  0.7222744518725198  0.7222744518725198  0.1167279875134226
  0.7222745118725177  0.0554510962549604  0.1167279875134226
  0.0561269304103479  0.3877461991792946  0.1164057115706940
  0.0554510962549604  0.7222744518725198  0.1167279875134226
  0.0561268114103487  0.0561269304103479  0.1164057115706941
  0.5000000000000000  0.5000000000000000  0.1714569104293016
  0.4998579369646327  0.8334326150704250  0.1723175843655723
  0.4998578469646324  0.1667095669649345  0.1723175843655723
  0.8334326150704250  0.4998578769646349  0.1723175843655723
  0.8333333730000021  0.8333333129999971  0.1724970322631935
  0.8334326150704250  0.1667095669649345  0.1723175843655723
  0.1667094479649353  0.4998578769646349  0.1723175843655723
  0.1667094479649353  0.8334326150704250  0.1723175843655723
  0.1666666269999979  0.1666667459999971  0.1729355762996421
  0.6109657406311602  0.6109658006311580  0.2270874788919370
  0.6098157643342491  0.9450921478328783  0.2264229676976417
  0.6109658006311580  0.2780685177376820  0.2270874788919370
  0.9450921478328783  0.6098158243342470  0.2264229676976417
  0.9450920878328805  0.9450921478328783  0.2264229676976417
  0.9454899862821927  0.2772550068589036  0.2266801888241242
  0.2780683987376829  0.6109658006311580  0.2270874788919370
  0.2772550068589036  0.9454900462821906  0.2266801888241242
  0.2772550068589036  0.2772550068589036  0.2266801888241242
  0.7212340855489793  0.7212340855489793  0.2812931697475899
  0.7212341455489771  0.0575318289020412  0.2812931697475899
  0.7206037606794703  0.3896980601602653  0.2818991548249467
  0.0575318289020412  0.7212340855489793  0.2812931697475899
  0.0542660249372841  0.0542661439372833  0.2821669378703726
  0.0542661439372833  0.3914677121254265  0.2821669378703726
  0.3896981791602644  0.7206037606794703  0.2818991548249467
  0.3914677121254265  0.0542661439372833  0.2821669378703726
  0.3896981791602644  0.3896980601602653  0.2818991548249467
  0.8333333730000021  0.8333333129999971  0.3334728700336697
  0.8314051788341766  0.1650196496205156  0.3352230742633721
  0.8314051198341824  0.5035752305453020  0.3352230742633721
  0.1650195306205164  0.8314051788341766  0.3352230742633721
  0.1666666269999979  0.1666667459999971  0.3348711234979889
  0.1650195306205164  0.5035752305453020  0.3352230742633721
  0.5035752305453021  0.8314051788341766  0.3352230742633721
  0.5035752305453020  0.1650196496205156  0.3352230742633721
  0.5000001189999992  0.5000000000000000  0.3403614318333417
  0.9439552864427135  0.9439553464427114  0.3961400131365892
  0.9649590590851304  0.2675204704574348  0.3922128841084259
  0.9439553464427114  0.6120893081145816  0.3961400131365892
  0.2675204704574348  0.9649591190851282  0.3922128841084259
  0.2675204704574348  0.2675204704574348  0.3922128841084259
  0.2739121083496427  0.6130438863251793  0.3888477915089840
  0.6120894271145808  0.9439553464427114  0.3961400131365892
  0.6130441243251776  0.2739121083496427  0.3888477915089840
  0.6130438863251793  0.6130438863251793  0.3888477915089840
  0.2773597292955959  0.4452805114088123  0.0598346535296909
  0.2773596992955935  0.7773597592955913  0.0598346535296909
  0.2766936350817622  0.1116532269591208  0.0595037558162524
  0.6114428919912378  0.4442785540043811  0.0602806619307543
  0.6116531079591216  0.7766936650817577  0.0595037558162523
  0.6116531669591230  0.1116532269591208  0.0595037558162524
  0.9442785840043834  0.4442785540043811  0.0602806619307543
  0.9452804814088174  0.7773597592955913  0.0598346535296909
  0.9442785840043834  0.1114429519912357  0.0602806619307543
  0.3877461691792992  0.5561269304103476  0.1164057115706940
  0.3884366602378988  0.8884366902378944  0.1166323573042780
  0.3884366002378938  0.2231267395242071  0.1166323573042779
  0.7222743918725149  0.5554510962549605  0.1167279875134226
  0.7231266205242082  0.8884366902378944  0.1166323573042780
  0.7222743918725149  0.2222745708725190  0.1167279875134226
  0.0561268114103487  0.5561269304103476  0.1164057115706941
  0.0561269304103479  0.8877461991792951  0.1164057115706940
  0.0554509772549612  0.2222745708725190  0.1167279875134226
  0.4998578769646349  0.6667094479649353  0.1723175843655723
  0.4999999400000021 -0.0000000000000000  0.1714569104293016
  0.4998578769646349  0.3334325560704305  0.1723175843655723
  0.8334326750704300  0.6667094479649353  0.1723175843655723
  0.8334326150704250 -0.0001421230353652  0.1723175843655723
  0.8333333730000021  0.3333332540000029  0.1724970322631935
  0.1666667459999971  0.6666666269999979  0.1729355762996421
  0.1667094479649353 -0.0001421230353652  0.1723175843655723
  0.1667095669649345  0.3334325560704305  0.1723175843655723
  0.6109656816311588  0.7780685177376819  0.2270874788919370
  0.6109657406311602  0.1109658006311585  0.2270874788919370
  0.6098157053342478  0.4450920878328801  0.2264229676976417
  0.9454899862821927  0.7772550068589037  0.2266801888241242
  0.9450921478328783  0.1098158243342465  0.2264229676976417
  0.9450920878328805  0.4450920878328801  0.2264229676976417
  0.2772550068589036  0.7772550068589037  0.2266801888241242
  0.2780685177376820  0.1109658006311585  0.2270874788919370
  0.2772548878589045  0.4454899862821929  0.2266801888241242
  0.7206037606794703  0.8896981201602631  0.2818991548249467
  0.7212340255489743  0.2212342045489786  0.2812931697475899
  0.7212340855489793  0.5575318289020411  0.2812931697475899
  0.0542661439372833  0.8914677721254244  0.2821669378703726
  0.0575317099020420  0.2212342045489786  0.2812931697475899
  0.0542661439372833  0.5542661439372836  0.2821669378703726
  0.3896981791602644  0.8896981201602631  0.2818991548249467
  0.3896979411602661  0.2206038796794692  0.2818991548249467
  0.3914677121254265  0.5542661439372836  0.2821669378703726
  0.8314051788341766  0.0035752305453018  0.3352230742633721
  0.8333333730000021  0.3333332540000029  0.3334728700336697
  0.8314051788341766  0.6650195306205166  0.3352230742633721
  0.1650195306205164  0.0035752305453018  0.3352230742633721
  0.1650196496205156  0.3314051198341826  0.3352230742633721
  0.1666666269999979  0.6666666269999979  0.3348711234979889
  0.4999998810000008 -0.0000000000000000  0.3403614318333417
  0.5035752305453020  0.3314051198341826  0.3352230742633721
  0.5035752305453020  0.6650195306205166  0.3352230742633721
  0.9439553464427114  0.1120894271145806  0.3961400131365892
  0.9439552864427135  0.4439552864427131  0.3961400131365892
  0.9649591190851282  0.7675204704574350  0.3922128841084259
  0.2739121083496427  0.1130440053251782  0.3888477915089840
  0.2675203514574356  0.4649590590851305  0.3922128841084259
  0.2675203514574356  0.7675204704574350  0.3922128841084259
  0.6130438863251793  0.1130440053251782  0.3888477915089840
  0.6120894271145808  0.4439552864427131  0.3961400131365892
  0.6130440053251784  0.7739121083496427  0.3888477915089840
  0.4452805114088123  0.2773597592955913  0.0598346535296909
  0.4442785540043811  0.6114429519912357  0.0602806619307543
  0.4442785540043811  0.9442785840043834  0.0602806619307543
  0.7773597592955913  0.2773597592955913  0.0598346535296909
  0.7766936050817599  0.6116532269591208  0.0595037558162523
  0.7773597592955913  0.9452805414088152  0.0598346535296909
  0.1116532269591208  0.2766936650817576  0.0595037558162524
  0.1116531079591216  0.6116532269591208  0.0595037558162524
  0.1114428329912365  0.9442785840043834  0.0602806619307543
  0.5561269304103476  0.3877461991792946  0.1164057115706941
  0.5554510962549605  0.7222744518725198  0.1167279875134226
  0.5561268704103497  0.0561269304103479  0.1164057115706940
  0.8884366302378965  0.3884366902378942  0.1166323573042780
  0.8884367492378957  0.7231266205242082  0.1166323573042780
  0.8877461991792951  0.0561269304103479  0.1164057115706941
  0.2231266205242079  0.3884366902378942  0.1166323573042780
  0.2222744518725198  0.7222744518725198  0.1167279875134226
  0.2222744518725198  0.0554510962549604  0.1167279875134226
  0.6667095079649402  0.4998578769646349  0.1723175843655723
  0.6667094479649353  0.8334326150704250  0.1723175843655723
  0.6666666870000029  0.1666667459999971  0.1729355762996422
 -0.0000000000000000  0.5000000000000000  0.1714569104293016
 -0.0001421230353652  0.8334326150704250  0.1723175843655723
 -0.0001421230353652  0.1667095669649345  0.1723175843655723
  0.3334325560704305  0.4998578769646349  0.1723175843655723
  0.3333333730000021  0.8333333129999971  0.1724970322631935
  0.3334325560704305  0.1667095669649345  0.1723175843655723
  0.7780684577376841  0.6109658006311580  0.2270874788919370
  0.7772550068589037  0.9454900462821906  0.2266801888241242
  0.7772550068589037  0.2772550068589036  0.2266801888241242
  0.1109656816311593  0.6109658006311580  0.2270874788919370
  0.1098157053342473  0.9450921478328783  0.2264229676976417
  0.1109658006311585  0.2780685177376820  0.2270874788919370
  0.4450920878328801  0.6098158243342470  0.2264229676976417
  0.4450920878328801  0.9450921478328783  0.2264229676976417
  0.4454901052821921  0.2772550068589036  0.2266801888241242
  0.8896981791602644  0.7206037606794703  0.2818991548249467
  0.8914677721254244  0.0542661439372833  0.2821669378703726
  0.8896980601602652  0.3896980601602653  0.2818991548249467
  0.2212340855489794  0.7212340855489793  0.2812931697475899
  0.2212340855489794  0.0575318289020412  0.2812931697475899
  0.2206037606794700  0.3896980601602653  0.2818991548249467
  0.5575317099020418  0.7212340855489793  0.2812931697475899
  0.5542661439372836  0.0542661439372833  0.2821669378703726
  0.5542662629372899  0.3914677121254265  0.2821669378703726
  0.0035752305453018  0.8314051788341766  0.3352230742633721
  0.0035752305453018  0.1650196496205156  0.3352230742633721
 -0.0000000000000000  0.5000000000000000  0.3403614318333417
  0.3333333730000021  0.8333333129999971  0.3334728700336697
  0.3314051198341826  0.1650196496205156  0.3352230742633721
  0.3314052388341818  0.5035752305453020  0.3352230742633721
  0.6650196496205157  0.8314051788341766  0.3352230742633721
  0.6666667459999971  0.1666667459999971  0.3348711234979889
  0.6650195306205166  0.5035752305453020  0.3352230742633721
  0.1120893081145815  0.9439553464427114  0.3961400131365892
  0.1130440053251782  0.2739121083496427  0.3888477915089840
  0.1130440053251782  0.6130438863251793  0.3888477915089840
  0.4439552864427131  0.9439553464427114  0.3961400131365892
  0.4649591780851297  0.2675204704574348  0.3922128841084259
  0.4439554054427123  0.6120893081145816  0.3961400131365892
  0.7675205894574342  0.9649591190851282  0.3922128841084259
  0.7675204704574350  0.2675204704574348  0.3922128841084259
  0.7739121083496427  0.6130438863251793  0.3888477915089840
 -0.0000000000000000 -0.0000000000000000  0.4186519439670969
 -0.0000000000000000 -0.0000000000000000  0.4529041150515721
 -0.0000000000000000 -0.0000000000000000  0.5297667773801887
 -0.0000000000000000 -0.0000000000000000  0.5612620559000729
 -0.0060121236118998  0.1363355438429745  0.4324828080270114
 -0.0051157635574188  0.1270901738870900  0.4644541414763973
 -0.0029460906970625  0.1280601450510641  0.5315686793089658
 -0.0050750764567918  0.1292382951053584  0.5625317297730611
 -0.0327108875733496  0.2663554437866748  0.4371538201088462
 -0.0029297909555889  0.2514648954777944  0.4666287285544061
 -0.0033179388989169  0.2516589694494584  0.5316754800403291
 -0.0092770977647987  0.2546385488823992  0.5625597676457132
 -0.0060121236118998  0.3696765797689253  0.4324828080270114
 -0.0051157635574188  0.3780255896703287  0.4644541414763973
 -0.0029460906970625  0.3748859456459985  0.5315686793089658
 -0.0050750764567918  0.3758367813514330  0.5625317297730611
 -0.0000000000000000  0.5000000000000000  0.4186519439670969
 -0.0000000000000000  0.5000000000000000  0.4529041150515721
 -0.0000000000000000  0.5000000000000000  0.5297667773801887
 -0.0000000000000000  0.5000000000000000  0.5612620559000729
 -0.0060121236118998  0.6363355438429743  0.4324828080270114
 -0.0051157635574188  0.6270901738870904  0.4644541414763973
 -0.0029460906970625  0.6280601450510639  0.5315686793089658
 -0.0050750764567918  0.6292382951053589  0.5625317297730611
 -0.0327108875733496  0.7663554437866748  0.4371538201088462
 -0.0029297909555889  0.7514648954777949  0.4666287285544061
 -0.0033179388989169  0.7516589694494583  0.5316754800403291
 -0.0092770977647987  0.7546385488823992  0.5625597676457132
 -0.0060121236118998  0.8696765797689251  0.4324828080270114
 -0.0051157635574188  0.8780255896703291  0.4644541414763973
 -0.0029460906970625  0.8748859456459985  0.5315686793089658
 -0.0050750764567918  0.8758367813514333  0.5625317297730611
  0.1363355438429745 -0.0060121236118998  0.4324828080270114
  0.1270901738870900 -0.0051157635574188  0.4644541414763973
  0.1280601450510641 -0.0029460906970625  0.5315686793089658
  0.1292382951053584 -0.0050750764567918  0.5625317297730611
  0.1265706355830321  0.1265706355830321  0.4348143315248426
  0.1224350429896910  0.1224350429896910  0.4663658692276827
  0.1251043182202937  0.1251043182202937  0.5330654784353545
  0.1247674540101834  0.1247674540101834  0.5636151862935799
  0.1265706355830321  0.2468587288339361  0.4348143315248426
  0.1224350429896910  0.2551299140206181  0.4663658692276827
  0.1251043182202937  0.2497913635594125  0.5330654784353545
  0.1247674540101834  0.2504650919796332  0.5636151862935799
  0.1363355438429745  0.3696765797689253  0.4324828080270114
  0.1270901738870900  0.3780255896703287  0.4644541414763973
  0.1280601450510641  0.3748859456459985  0.5315686793089658
  0.1292382951053584  0.3758367813514330  0.5625317297730611
  0.1363355438429745  0.4939878763881005  0.4324828080270114
  0.1270901738870900  0.4948842364425813  0.4644541414763973
  0.1280601450510641  0.4970539093029375  0.5315686793089658
  0.1292382951053584  0.4949249235432083  0.5625317297730611
  0.1265706355830321  0.6265706355830319  0.4348143315248426
  0.1224350429896910  0.6224350429896913  0.4663658692276827
  0.1251043182202937  0.6251043182202939  0.5330654784353545
  0.1247674540101834  0.6247674540101834  0.5636151862935799
  0.1265706355830321  0.7468587288339362  0.4348143315248426
  0.1224350429896910  0.7551299140206181  0.4663658692276827
  0.1251043182202937  0.7497913635594124  0.5330654784353545
  0.1247674540101834  0.7504650919796331  0.5636151862935799
  0.1363355438429745  0.8696765797689251  0.4324828080270114
  0.1270901738870900  0.8780255896703291  0.4644541414763973
  0.1280601450510641  0.8748859456459985  0.5315686793089658
  0.1292382951053584  0.8758367813514333  0.5625317297730611
  0.2663554437866748 -0.0327108875733496  0.4371538201088462
  0.2514648954777944 -0.0029297909555889  0.4666287285544061
  0.2516589694494584 -0.0033179388989169  0.5316754800403291
  0.2546385488823992 -0.0092770977647987  0.5625597676457132
  0.2468587288339361  0.1265706355830321  0.4348143315248426
  0.2551299140206181  0.1224350429896910  0.4663658692276827
  0.2497913635594125  0.1251043182202937  0.5330654784353545
  0.2504650919796332  0.1247674540101834  0.5636151862935799
  0.2663554437866748  0.2663554437866748  0.4371538201088462
  0.2514648954777944  0.2514648954777944  0.4666287285544061
  0.2516589694494584  0.2516589694494584  0.5316754800403291
  0.2546385488823993  0.2546385488823992  0.5625597676457132
  0.2305069465252679  0.3847465267373659  0.3822733667239236
  0.2556568766960130  0.3721715616519936  0.4781249003946150
  0.2529886657114265  0.3735056671442867  0.5091983763399677
  0.2753009200386090  0.3623495399806953  0.5873893517043051
  0.2663554437866748  0.4672891124266503  0.4371538201088462
  0.2514648954777944  0.4970702090444113  0.4666287285544061
  0.2516589694494584  0.4966820611010831  0.5316754800403291
  0.2546385488823992  0.4907229022352013  0.5625597676457132
  0.2468587288339361  0.6265706355830319  0.4348143315248426
  0.2551299140206181  0.6224350429896913  0.4663658692276827
  0.2497913635594125  0.6251043182202939  0.5330654784353545
  0.2504650919796332  0.6247674540101834  0.5636151862935799
  0.2663554437866748  0.7663554437866748  0.4371538201088462
  0.2514648954777944  0.7514648954777949  0.4666287285544061
  0.2516589694494584  0.7516589694494583  0.5316754800403291
  0.2546385488823992  0.7546385488823992  0.5625597676457132
  0.2305069465252679  0.8847465267373660  0.3822733667239236
  0.2556568766960130  0.8721715616519936  0.4781249003946150
  0.2529886657114265  0.8735056671442870  0.5091983763399677
  0.2753009200386090  0.8623495399806954  0.5873893517043051
  0.3696765797689253 -0.0060121236118998  0.4324828080270114
  0.3780255896703287 -0.0051157635574188  0.4644541414763972
  0.3748859456459985 -0.0029460906970625  0.5315686793089658
  0.3758367813514330 -0.0050750764567918  0.5625317297730611
  0.3696765797689253  0.1363355438429745  0.4324828080270114
  0.3780255896703287  0.1270901738870900  0.4644541414763973
  0.3748859456459985  0.1280601450510641  0.5315686793089658
  0.3758367813514330  0.1292382951053584  0.5625317297730611
  0.3847465267373659  0.2305069465252679  0.3822733667239236
  0.3721715616519936  0.2556568766960130  0.4781249003946150
  0.3735056671442867  0.2529886657114265  0.5091983763399677
  0.3623495399806952  0.2753009200386090  0.5873893517043051
  0.3847465267373659  0.3847465267373659  0.3822733667239236
  0.3721715616519936  0.3721715616519936  0.4781249003946150
  0.3735056671442867  0.3735056671442867  0.5091983763399677
  0.3623495399806953  0.3623495399806952  0.5873893517043051
  0.3696765797689253  0.4939878763881005  0.4324828080270114
  0.3780255896703287  0.4948842364425813  0.4644541414763972
  0.3748859456459985  0.4970539093029375  0.5315686793089658
  0.3758367813514330  0.4949249235432083  0.5625317297730611
  0.3696765797689253  0.6363355438429743  0.4324828080270114
  0.3780255896703287  0.6270901738870904  0.4644541414763973
  0.3748859456459985  0.6280601450510639  0.5315686793089658
  0.3758367813514330  0.6292382951053589  0.5625317297730611
  0.3847465267373659  0.7305069465252682  0.3822733667239236
  0.3721715616519936  0.7556568766960129  0.4781249003946150
  0.3735056671442867  0.7529886657114265  0.5091983763399677
  0.3623495399806952  0.7753009200386094  0.5873893517043051
  0.3847465267373659  0.8847465267373660  0.3822733667239236
  0.3721715616519936  0.8721715616519936  0.4781249003946150
  0.3735056671442867  0.8735056671442870  0.5091983763399677
  0.3623495399806953  0.8623495399806954  0.5873893517043051
  0.5000000000000000 -0.0000000000000000  0.4186519439670969
  0.5000000000000000 -0.0000000000000000  0.4529041150515721
  0.5000000000000000 -0.0000000000000000  0.5297667773801887
  0.5000000000000000  0.0000000000000000  0.5612620559000729
  0.4939878763881005  0.1363355438429745  0.4324828080270114
  0.4948842364425813  0.1270901738870900  0.4644541414763973
  0.4970539093029375  0.1280601450510641  0.5315686793089658
  0.4949249235432083  0.1292382951053584  0.5625317297730611
  0.4672891124266503  0.2663554437866748  0.4371538201088462
  0.4970702090444113  0.2514648954777944  0.4666287285544061
  0.4966820611010831  0.2516589694494584  0.5316754800403291
  0.4907229022352013  0.2546385488823992  0.5625597676457132
  0.4939878763881005  0.3696765797689253  0.4324828080270114
  0.4948842364425813  0.3780255896703287  0.4644541414763973
  0.4970539093029375  0.3748859456459985  0.5315686793089658
  0.4949249235432083  0.3758367813514330  0.5625317297730611
  0.5000000000000000  0.5000000000000000  0.4186519439670969
  0.5000000000000000  0.5000000000000000  0.4529041150515721
  0.5000000000000000  0.5000000000000000  0.5297667773801887
  0.5000000000000000  0.5000000000000000  0.5612620559000729
  0.4939878763881005  0.6363355438429743  0.4324828080270114
  0.4948842364425813  0.6270901738870904  0.4644541414763973
  0.4970539093029375  0.6280601450510639  0.5315686793089658
  0.4949249235432083  0.6292382951053589  0.5625317297730611
  0.4672891124266503  0.7663554437866749  0.4371538201088462
  0.4970702090444113  0.7514648954777949  0.4666287285544061
  0.4966820611010831  0.7516589694494583  0.5316754800403291
  0.4907229022352013  0.7546385488823992  0.5625597676457132
  0.4939878763881005  0.8696765797689251  0.4324828080270114
  0.4948842364425813  0.8780255896703291  0.4644541414763973
  0.4970539093029375  0.8748859456459985  0.5315686793089658
  0.4949249235432083  0.8758367813514333  0.5625317297730611
  0.6363355438429743 -0.0060121236118998  0.4324828080270114
  0.6270901738870904 -0.0051157635574188  0.4644541414763973
  0.6280601450510639 -0.0029460906970625  0.5315686793089658
  0.6292382951053589 -0.0050750764567918  0.5625317297730611
  0.6265706355830319  0.1265706355830321  0.4348143315248426
  0.6224350429896913  0.1224350429896910  0.4663658692276827
  0.6251043182202939  0.1251043182202937  0.5330654784353545
  0.6247674540101834  0.1247674540101834  0.5636151862935799
  0.6265706355830319  0.2468587288339361  0.4348143315248426
  0.6224350429896913  0.2551299140206181  0.4663658692276827
  0.6251043182202939  0.2497913635594125  0.5330654784353545
  0.6247674540101834  0.2504650919796332  0.5636151862935799
  0.6363355438429743  0.3696765797689253  0.4324828080270114
  0.6270901738870904  0.3780255896703287  0.4644541414763973
  0.6280601450510639  0.3748859456459985  0.5315686793089658
  0.6292382951053589  0.3758367813514330  0.5625317297730611
  0.6363355438429743  0.4939878763881005  0.4324828080270114
  0.6270901738870904  0.4948842364425813  0.4644541414763973
  0.6280601450510639  0.4970539093029375  0.5315686793089658
  0.6292382951053589  0.4949249235432083  0.5625317297730611
  0.6265706355830319  0.6265706355830319  0.4348143315248426
  0.6224350429896913  0.6224350429896913  0.4663658692276826
  0.6251043182202939  0.6251043182202939  0.5330654784353545
  0.6247674540101834  0.6247674540101834  0.5636151862935799
  0.6265706355830319  0.7468587288339362  0.4348143315248426
  0.6224350429896913  0.7551299140206181  0.4663658692276827
  0.6251043182202939  0.7497913635594124  0.5330654784353545
  0.6247674540101834  0.7504650919796331  0.5636151862935799
  0.6363355438429743  0.8696765797689251  0.4324828080270114
  0.6270901738870904  0.8780255896703291  0.4644541414763973
  0.6280601450510639  0.8748859456459985  0.5315686793089658
  0.6292382951053589  0.8758367813514333  0.5625317297730611
  0.7663554437866748 -0.0327108875733496  0.4371538201088462
  0.7514648954777949 -0.0029297909555889  0.4666287285544061
  0.7516589694494583 -0.0033179388989169  0.5316754800403291
  0.7546385488823992 -0.0092770977647987  0.5625597676457132
  0.7468587288339362  0.1265706355830321  0.4348143315248426
  0.7551299140206181  0.1224350429896910  0.4663658692276827
  0.7497913635594124  0.1251043182202937  0.5330654784353545
  0.7504650919796331  0.1247674540101834  0.5636151862935799
  0.7663554437866749  0.2663554437866748  0.4371538201088462
  0.7514648954777949  0.2514648954777944  0.4666287285544061
  0.7516589694494583  0.2516589694494584  0.5316754800403291
  0.7546385488823992  0.2546385488823992  0.5625597676457132
  0.7305069465252682  0.3847465267373659  0.3822733667239236
  0.7556568766960129  0.3721715616519936  0.4781249003946150
  0.7529886657114265  0.3735056671442867  0.5091983763399677
  0.7753009200386095  0.3623495399806953  0.5873893517043051
  0.7663554437866748  0.4672891124266503  0.4371538201088462
  0.7514648954777949  0.4970702090444113  0.4666287285544061
  0.7516589694494583  0.4966820611010831  0.5316754800403291
  0.7546385488823992  0.4907229022352013  0.5625597676457132
  0.7468587288339362  0.6265706355830319  0.4348143315248426
  0.7551299140206181  0.6224350429896913  0.4663658692276827
  0.7497913635594124  0.6251043182202939  0.5330654784353545
  0.7504650919796331  0.6247674540101834  0.5636151862935799
  0.7663554437866749  0.7663554437866748  0.4371538201088462
  0.7514648954777949  0.7514648954777949  0.4666287285544061
  0.7516589694494583  0.7516589694494583  0.5316754800403291
  0.7546385488823992  0.7546385488823992  0.5625597676457132
  0.7305069465252682  0.8847465267373660  0.3822733667239236
  0.7556568766960129  0.8721715616519936  0.4781249003946150
  0.7529886657114265  0.8735056671442870  0.5091983763399677
  0.7753009200386095  0.8623495399806954  0.5873893517043051
  0.8696765797689251 -0.0060121236118998  0.4324828080270114
  0.8780255896703291 -0.0051157635574188  0.4644541414763973
  0.8748859456459984 -0.0029460906970625  0.5315686793089658
  0.8758367813514333 -0.0050750764567918  0.5625317297730611
  0.8696765797689251  0.1363355438429745  0.4324828080270114
  0.8780255896703291  0.1270901738870900  0.4644541414763973
  0.8748859456459984  0.1280601450510641  0.5315686793089658
  0.8758367813514333  0.1292382951053584  0.5625317297730611
  0.8847465267373660  0.2305069465252679  0.3822733667239236
  0.8721715616519936  0.2556568766960130  0.4781249003946150