New structure
1.0
    16.198   0.0  0.0
    0.0  16.198   0.0
    0.0  0.0  16.198 
   Al
  256
Cartesian
 0.0000000000000000        0.0000000000000000        0.0000000000000000
 0.0000000000000000        2.0247500000000000        2.0247500000000000
 2.0247500000000000        0.0000000000000000        2.0247500000000000
 2.0247500000000000        2.0247500000000000        0.0000000000000000
 0.0000000000000000        0.0000000000000000        4.0495000000000001
 0.0000000000000000        2.0247500000000000        6.0742500000000001
 2.0247500000000000        0.0000000000000000        6.0742500000000001
 2.0247500000000000        2.0247500000000000        4.0495000000000001
 0.0000000000000000        0.0000000000000000        8.0990000000000002
 0.0000000000000000        2.0247500000000000        10.123750000000001
 2.0247500000000000        0.0000000000000000        10.123750000000001
 2.0247500000000000        2.0247500000000000        8.0990000000000002
 0.0000000000000000        0.0000000000000000        12.148500000000000
 0.0000000000000000        2.0247500000000000        14.173249999999999
 2.0247500000000000        0.0000000000000000        14.173249999999999
 2.0247500000000000        2.0247500000000000        12.148500000000000
 0.0000000000000000        4.0495000000000001        0.0000000000000000
 0.0000000000000000        6.0742500000000001        2.0247500000000000
 2.0247500000000000        4.0495000000000001        2.0247500000000000
 2.0247500000000000        6.0742500000000001        0.0000000000000000
 0.0000000000000000        4.0495000000000001        4.0495000000000001
 0.0000000000000000        6.0742500000000001        6.0742500000000001
 2.0247500000000000        4.0495000000000001        6.0742500000000001
 2.0247500000000000        6.0742500000000001        4.0495000000000001
 0.0000000000000000        4.0495000000000001        8.0990000000000002
 0.0000000000000000        6.0742500000000001        10.123750000000001
 2.0247500000000000        4.0495000000000001        10.123750000000001
 2.0247500000000000        6.0742500000000001        8.0990000000000002
 0.0000000000000000        4.0495000000000001        12.148500000000000
 0.0000000000000000        6.0742500000000001        14.173249999999999
 2.0247500000000000        4.0495000000000001        14.173249999999999
 2.0247500000000000        6.0742500000000001        12.148500000000000
 0.0000000000000000        8.0990000000000002        0.0000000000000000
 0.0000000000000000        10.123750000000001        2.0247500000000000
 2.0247500000000000        8.0990000000000002        2.0247500000000000
 2.0247500000000000        10.123750000000001        0.0000000000000000
 0.0000000000000000        8.0990000000000002        4.0495000000000001
 0.0000000000000000        10.123750000000001        6.0742500000000001
 2.0247500000000000        8.0990000000000002        6.0742500000000001
 2.0247500000000000        10.123750000000001        4.0495000000000001
 0.0000000000000000        8.0990000000000002        8.0990000000000002
 0.0000000000000000        10.123750000000001        10.123750000000001
 2.0247500000000000        8.0990000000000002        10.123750000000001
 2.0247500000000000        10.123750000000001        8.0990000000000002
 0.0000000000000000        8.0990000000000002        12.148500000000000
 0.0000000000000000        10.123750000000001        14.173249999999999
 2.0247500000000000        8.0990000000000002        14.173249999999999
 2.0247500000000000        10.123750000000001        12.148500000000000
 0.0000000000000000        12.148500000000000        0.0000000000000000
 0.0000000000000000        14.173249999999999        2.0247500000000000
 2.0247500000000000        12.148500000000000        2.0247500000000000
 2.0247500000000000        14.173249999999999        0.0000000000000000
 0.0000000000000000        12.148500000000000        4.0495000000000001
 0.0000000000000000        14.173249999999999        6.0742500000000001
 2.0247500000000000        12.148500000000000        6.0742500000000001
 2.0247500000000000        14.173249999999999        4.0495000000000001
 0.0000000000000000        12.148500000000000        8.0990000000000002
 0.0000000000000000        14.173249999999999        10.123750000000001
 2.0247500000000000        12.148500000000000        10.123750000000001
 2.0247500000000000        14.173249999999999        8.0990000000000002
 0.0000000000000000        12.148500000000000        12.148500000000000
 0.0000000000000000        14.173249999999999        14.173249999999999
 2.0247500000000000        12.148500000000000        14.173249999999999
 2.0247500000000000        14.173249999999999        12.148500000000000
 4.0495000000000001        0.0000000000000000        0.0000000000000000
 4.0495000000000001        2.0247500000000000        2.0247500000000000
 6.0742500000000001        0.0000000000000000        2.0247500000000000
 6.0742500000000001        2.0247500000000000        0.0000000000000000
 4.0495000000000001        0.0000000000000000        4.0495000000000001
 4.0495000000000001        2.0247500000000000        6.0742500000000001
 6.0742500000000001        0.0000000000000000        6.0742500000000001
 6.0742500000000001        2.0247500000000000        4.0495000000000001
 4.0495000000000001        0.0000000000000000        8.0990000000000002
 4.0495000000000001        2.0247500000000000        10.123750000000001
 6.0742500000000001        0.0000000000000000        10.123750000000001
 6.0742500000000001        2.0247500000000000        8.0990000000000002
 4.0495000000000001        0.0000000000000000        12.148500000000000
 4.0495000000000001        2.0247500000000000        14.173249999999999
 6.0742500000000001        0.0000000000000000        14.173249999999999
 6.0742500000000001        2.0247500000000000        12.148500000000000
 4.0495000000000001        4.0495000000000001        0.0000000000000000
 4.0495000000000001        6.0742500000000001        2.0247500000000000
 6.0742500000000001        4.0495000000000001        2.0247500000000000
 6.0742500000000001        6.0742500000000001        0.0000000000000000
 4.0495000000000001        4.0495000000000001        4.0495000000000001
 4.0495000000000001        6.0742500000000001        6.0742500000000001
 6.0742500000000001        4.0495000000000001        6.0742500000000001
 6.0742500000000001        6.0742500000000001        4.0495000000000001
 4.0495000000000001        4.0495000000000001        8.0990000000000002
 4.0495000000000001        6.0742500000000001        10.123750000000001
 6.0742500000000001        4.0495000000000001        10.123750000000001
 6.0742500000000001        6.0742500000000001        8.0990000000000002
 4.0495000000000001        4.0495000000000001        12.148500000000000
 4.0495000000000001        6.0742500000000001        14.173249999999999
 6.0742500000000001        4.0495000000000001        14.173249999999999
 6.0742500000000001        6.0742500000000001        12.148500000000000
 4.0495000000000001        8.0990000000000002        0.0000000000000000
 4.0495000000000001        10.123750000000001        2.0247500000000000
 6.0742500000000001        8.0990000000000002        2.0247500000000000
 6.0742500000000001        10.123750000000001        0.0000000000000000
 4.0495000000000001        8.0990000000000002        4.0495000000000001
 4.0495000000000001        10.123750000000001        6.0742500000000001
 6.0742500000000001        8.0990000000000002        6.0742500000000001
 6.0742500000000001        10.123750000000001        4.0495000000000001
 4.0495000000000001        8.0990000000000002        8.0990000000000002
 4.0495000000000001        10.123750000000001        10.123750000000001
 6.0742500000000001        8.0990000000000002        10.123750000000001
 6.0742500000000001        10.123750000000001        8.0990000000000002
 4.0495000000000001        8.0990000000000002        12.148500000000000
 4.0495000000000001        10.123750000000001        14.173249999999999
 6.0742500000000001        8.0990000000000002        14.173249999999999
 6.0742500000000001        10.123750000000001        12.148500000000000
 4.0495000000000001        12.148500000000000        0.0000000000000000
 4.0495000000000001        14.173249999999999        2.0247500000000000
 6.0742500000000001        12.148500000000000        2.0247500000000000
 6.0742500000000001        14.173249999999999        0.0000000000000000
 4.0495000000000001        12.148500000000000        4.0495000000000001
 4.0495000000000001        14.173249999999999        6.0742500000000001
 6.0742500000000001        12.148500000000000        6.0742500000000001
 6.0742500000000001        14.173249999999999        4.0495000000000001
 4.0495000000000001        12.148500000000000        8.0990000000000002
 4.0495000000000001        14.173249999999999        10.123750000000001
 6.0742500000000001        12.148500000000000        10.123750000000001
 6.0742500000000001        14.173249999999999        8.0990000000000002
 4.0495000000000001        12.148500000000000        12.148500000000000
 4.0495000000000001        14.173249999999999        14.173249999999999
 6.0742500000000001        12.148500000000000        14.173249999999999
 6.0742500000000001        14.173249999999999        12.148500000000000
 8.0990000000000002        0.0000000000000000        0.0000000000000000
 8.0990000000000002        2.0247500000000000        2.0247500000000000
 10.123750000000001        0.0000000000000000        2.0247500000000000
 10.123750000000001        2.0247500000000000        0.0000000000000000
 8.0990000000000002        0.0000000000000000        4.0495000000000001
 8.0990000000000002        2.0247500000000000        6.0742500000000001
 10.123750000000001        0.0000000000000000        6.0742500000000001
 10.123750000000001        2.0247500000000000        4.0495000000000001
 8.0990000000000002        0.0000000000000000        8.0990000000000002
 8.0990000000000002        2.0247500000000000        10.123750000000001
 10.123750000000001        0.0000000000000000        10.123750000000001
 10.123750000000001        2.0247500000000000        8.0990000000000002
 8.0990000000000002        0.0000000000000000        12.148500000000000
 8.0990000000000002        2.0247500000000000        14.173249999999999
 10.123750000000001        0.0000000000000000        14.173249999999999
 10.123750000000001        2.0247500000000000        12.148500000000000
 8.0990000000000002        4.0495000000000001        0.0000000000000000
 8.0990000000000002        6.0742500000000001        2.0247500000000000
 10.123750000000001        4.0495000000000001        2.0247500000000000
 10.123750000000001        6.0742500000000001        0.0000000000000000
 8.0990000000000002        4.0495000000000001        4.0495000000000001
 8.0990000000000002        6.0742500000000001        6.0742500000000001
 10.123750000000001        4.0495000000000001        6.0742500000000001
 10.123750000000001        6.0742500000000001        4.0495000000000001
 8.0990000000000002        4.0495000000000001        8.0990000000000002
 8.0990000000000002        6.0742500000000001        10.123750000000001
 10.123750000000001        4.0495000000000001        10.123750000000001
 10.123750000000001        6.0742500000000001        8.0990000000000002
 8.0990000000000002        4.0495000000000001        12.148500000000000
 8.0990000000000002        6.0742500000000001        14.173249999999999
 10.123750000000001        4.0495000000000001        14.173249999999999
 10.123750000000001        6.0742500000000001        12.148500000000000
 8.0990000000000002        8.0990000000000002        0.0000000000000000
 8.0990000000000002        10.123750000000001        2.0247500000000000
 10.123750000000001        8.0990000000000002        2.0247500000000000
 10.123750000000001        10.123750000000001        0.0000000000000000
 8.0990000000000002        8.0990000000000002        4.0495000000000001
 8.0990000000000002        10.123750000000001        6.0742500000000001
 10.123750000000001        8.0990000000000002        6.0742500000000001
 10.123750000000001        10.123750000000001        4.0495000000000001
 8.0990000000000002        8.0990000000000002        8.0990000000000002
 8.0990000000000002        10.123750000000001        10.123750000000001
 10.123750000000001        8.0990000000000002        10.123750000000001
 10.123750000000001        10.123750000000001        8.0990000000000002
 8.0990000000000002        8.0990000000000002        12.148500000000000
 8.0990000000000002        10.123750000000001        14.173249999999999
 10.123750000000001        8.0990000000000002        14.173249999999999
 10.123750000000001        10.123750000000001        12.148500000000000
 8.0990000000000002        12.148500000000000        0.0000000000000000
 8.0990000000000002        14.173249999999999        2.0247500000000000
 10.123750000000001        12.148500000000000        2.0247500000000000
 10.123750000000001        14.173249999999999        0.0000000000000000
 8.0990000000000002        12.148500000000000        4.0495000000000001
 8.0990000000000002        14.173249999999999        6.0742500000000001
 10.123750000000001        12.148500000000000        6.0742500000000001
 10.123750000000001        14.173249999999999        4.0495000000000001
 8.0990000000000002        12.148500000000000        8.0990000000000002
 8.0990000000000002        14.173249999999999        10.123750000000001
 10.123750000000001        12.148500000000000        10.123750000000001
 10.123750000000001        14.173249999999999        8.0990000000000002
 8.0990000000000002        12.148500000000000        12.148500000000000
 8.0990000000000002        14.173249999999999        14.173249999999999
 10.123750000000001        12.148500000000000        14.173249999999999
 10.123750000000001        14.173249999999999        12.148500000000000
 12.148500000000000        0.0000000000000000        0.0000000000000000
 12.148500000000000        2.0247500000000000        2.0247500000000000
 14.173249999999999        0.0000000000000000        2.0247500000000000
 14.173249999999999        2.0247500000000000        0.0000000000000000
 12.148500000000000        0.0000000000000000        4.0495000000000001
 12.148500000000000        2.0247500000000000        6.0742500000000001
 14.173249999999999        0.0000000000000000        6.0742500000000001
 14.173249999999999        2.0247500000000000        4.0495000000000001
 12.148500000000000        0.0000000000000000        8.0990000000000002
 12.148500000000000        2.0247500000000000        10.123750000000001
 14.173249999999999        0.0000000000000000        10.123750000000001
 14.173249999999999        2.0247500000000000        8.0990000000000002
 12.148500000000000        0.0000000000000000        12.148500000000000
 12.148500000000000        2.0247500000000000        14.173249999999999
 14.173249999999999        0.0000000000000000        14.173249999999999
 14.173249999999999        2.0247500000000000        12.148500000000000
 12.148500000000000        4.0495000000000001        0.0000000000000000
 12.148500000000000        6.0742500000000001        2.0247500000000000
 14.173249999999999        4.0495000000000001        2.0247500000000000
 14.173249999999999        6.0742500000000001        0.0000000000000000
 12.148500000000000        4.0495000000000001        4.0495000000000001
 12.148500000000000        6.0742500000000001        6.0742500000000001
 14.173249999999999        4.0495000000000001        6.0742500000000001
 14.173249999999999        6.0742500000000001        4.0495000000000001
 12.148500000000000        4.0495000000000001        8.0990000000000002
 12.148500000000000        6.0742500000000001        10.123750000000001
 14.173249999999999        4.0495000000000001        10.123750000000001
 14.173249999999999        6.0742500000000001        8.0990000000000002
 12.148500000000000        4.0495000000000001        12.148500000000000
 12.148500000000000        6.0742500000000001        14.173249999999999
 14.173249999999999        4.0495000000000001        14.173249999999999
 14.173249999999999        6.0742500000000001        12.148500000000000
 12.148500000000000        8.0990000000000002        0.0000000000000000
 12.148500000000000        10.123750000000001        2.0247500000000000
 14.173249999999999        8.0990000000000002        2.0247500000000000
 14.173249999999999        10.123750000000001        0.0000000000000000
 12.148500000000000        8.0990000000000002        4.0495000000000001
 12.148500000000000        10.123750000000001        6.0742500000000001
 14.173249999999999        8.0990000000000002        6.0742500000000001
 14.173249999999999        10.123750000000001        4.0495000000000001
 12.148500000000000        8.0990000000000002        8.0990000000000002
 12.148500000000000        10.123750000000001        10.123750000000001
 14.173249999999999        8.0990000000000002        10.123750000000001
 14.173249999999999        10.123750000000001        8.0990000000000002
 12.148500000000000        8.0990000000000002        12.148500000000000
 12.148500000000000        10.123750000000001        14.173249999999999
 14.173249999999999        8.0990000000000002        14.173249999999999
 14.173249999999999        10.123750000000001        12.148500000000000
 12.148500000000000        12.148500000000000        0.0000000000000000
 12.148500000000000        14.173249999999999        2.0247500000000000
 14.173249999999999        12.148500000000000        2.0247500000000000
 14.173249999999999        14.173249999999999        0.0000000000000000
 12.148500000000000        12.148500000000000        4.0495000000000001
 12.148500000000000        14.173249999999999        6.0742500000000001
 14.173249999999999        12.148500000000000        6.0742500000000001
 14.173249999999999        14.173249999999999        4.0495000000000001
 12.148500000000000        12.148500000000000        8.0990000000000002
 12.148500000000000        14.173249999999999        10.123750000000001
 14.173249999999999        12.148500000000000        10.123750000000001
 14.173249999999999        14.173249999999999        8.0990000000000002
 12.148500000000000        12.148500000000000        12.148500000000000
 12.148500000000000        14.173249999999999        14.173249999999999
 14.173249999999999        12.148500000000000        14.173249999999999
 14.173249999999999        14.173249999999999        12.148500000000000
