New structure                           
    1.000000000000000     
    14.5000000000000000    0.0000000000000000    0.0000000000000000
     0.0000000000000000   14.5000000000000000    0.0000000000000000
     0.0000000000000000    0.0000000000000000   14.5000000000000000
   O 
     4
Direct
  0.0000000000000000  0.0000000000000000  0.0000000000000000
  0.0827586206896527  0.0000000000000000  0.0000000000000000
  0.1379310344827616  0.0000000000000000  0.0000000000000000
  0.2206896551724142  0.0000000000000000  0.0000000000000000
 
  0.00000000E+00  0.00000000E+00  0.00000000E+00
  0.00000000E+00  0.00000000E+00  0.00000000E+00
  0.00000000E+00  0.00000000E+00  0.00000000E+00
  0.00000000E+00  0.00000000E+00  0.00000000E+00
