New structure
1.0
    14.5   0.0  0.0
    0.0  14.5   0.0
    0.0  0.0  14.5 
   O
  1
Cartesian
  0.000000000000000E+000  0.000000000000000E+000  0.000000000000000E+000
