New structure                           
    1.000000000000000     
    14.5000000000000000    0.0000000000000000    0.0000000000000000
     0.0000000000000000   14.5000000000000000    0.0000000000000000
     0.0000000000000000    0.0000000000000000   14.5000000000000000
   Ni   Al   O 
   125   125     1
Direct
 -0.0093816542247392 -0.0093816542247392  0.0000000000000000
 -0.0018662201776343 -0.0018662201776343  0.2009675935335679
 -0.0004466158023375 -0.0004466158023375  0.3999699658564120
 -0.0004466158023375 -0.0004466158023375  0.6000300341435881
 -0.0018662201776343 -0.0018662201776343  0.7990324064664319
 -0.0093816542247392  0.2093816542247421  0.0000000000000000
 -0.0018662201776343  0.2018662201776371  0.2009675935335679
 -0.0004466158023375  0.2004466158023403  0.3999699658564120
 -0.0004466158023375  0.2004466158023403  0.6000300341435881
 -0.0018662201776343  0.2018662201776371  0.7990324064664319
 -0.0001056493799405  0.4002719720122083  0.0000000000000000
 -0.0003440718963602  0.4008322480464172  0.2008415887681695
 -0.0000644235067238  0.4002389200668650  0.4002809754688761
 -0.0000644235067238  0.4002389200668650  0.5997190245311239
 -0.0003440718963602  0.4008322480464172  0.7991584112318303
 -0.0000160894672283  0.6000000000000014  0.0000000000000000
 -0.0001711351386343  0.6000000000000014  0.2001224406244324
  0.0000313888903661  0.6000000000000014  0.4001214584382727
  0.0000313888903661  0.6000000000000014  0.5998785415617278
 -0.0001711351386343  0.6000000000000014  0.7998775593755678
 -0.0001056493799405  0.7997280279877870  0.0000000000000000
 -0.0003440718963602  0.7991677519535783  0.2008415887681695
 -0.0000644235067238  0.7997610799331309  0.4002809754688761
 -0.0000644235067238  0.7997610799331309  0.5997190245311239
 -0.0003440718963602  0.7991677519535783  0.7991584112318303
  0.2093816542247421 -0.0093816542247392  0.0000000000000000
  0.2018662201776371 -0.0018662201776343  0.2009675935335679
  0.2004466158023403 -0.0004466158023375  0.3999699658564120
  0.2004466158023403 -0.0004466158023375  0.6000300341435881
  0.2018662201776371 -0.0018662201776343  0.7990324064664319
  0.2093816542247421  0.2093816542247421  0.0000000000000000
  0.2018662201776371  0.2018662201776371  0.2009675935335679
  0.2004466158023403  0.2004466158023403  0.3999699658564120
  0.2004466158023403  0.2004466158023403  0.6000300341435881
  0.2018662201776371  0.2018662201776371  0.7990324064664319
  0.2001056493799434  0.4002719720122083  0.0000000000000000
  0.2003440718963630  0.4008322480464172  0.2008415887681695
  0.2000644235067267  0.4002389200668650  0.4002809754688761
  0.2000644235067267  0.4002389200668650  0.5997190245311239
  0.2003440718963630  0.4008322480464172  0.7991584112318303
  0.2000160894672311  0.6000000000000014  0.0000000000000000
  0.2001711351386372  0.6000000000000014  0.2001224406244324
  0.1999686111096367  0.6000000000000014  0.4001214584382727
  0.1999686111096367  0.6000000000000014  0.5998785415617278
  0.2001711351386372  0.6000000000000014  0.7998775593755678
  0.2001056493799434  0.7997280279877870  0.0000000000000000
  0.2003440718963630  0.7991677519535783  0.2008415887681695
  0.2000644235067267  0.7997610799331309  0.4002809754688761
  0.2000644235067267  0.7997610799331309  0.5997190245311239
  0.2003440718963630  0.7991677519535783  0.7991584112318303
  0.4002719720122083 -0.0001056493799405  0.0000000000000000
  0.4008322480464172 -0.0003440718963602  0.2008415887681695
  0.4002389200668650 -0.0000644235067238  0.4002809754688761
  0.4002389200668650 -0.0000644235067238  0.5997190245311239
  0.4008322480464172 -0.0003440718963602  0.7991584112318303
  0.4002719720122083  0.2001056493799434  0.0000000000000000
  0.4008322480464172  0.2003440718963630  0.2008415887681695
  0.4002389200668650  0.2000644235067267  0.4002809754688761
  0.4002389200668650  0.2000644235067267  0.5997190245311239
  0.4008322480464172  0.2003440718963630  0.7991584112318303
  0.4011052452947148  0.4011052452947148  0.0000000000000000
  0.4007968435833752  0.4007968435833752  0.2004157499499697
  0.4002747625634404  0.4002747625634404  0.4001315997508298
  0.4002747625634404  0.4002747625634404  0.5998684002491702
  0.4007968435833752  0.4007968435833752  0.7995842500500301
  0.4000773138163733  0.6000000000000014  0.0000000000000000
  0.4001735992863863  0.6000000000000014  0.2001113938366917
  0.4000483507288926  0.6000000000000014  0.4002151692958048
  0.4000483507288926  0.6000000000000014  0.5997848307041953
  0.4001735992863863  0.6000000000000014  0.7998886061633083
  0.4011052452947148  0.7988947547052812  0.0000000000000000
  0.4007968435833752  0.7992031564166203  0.2004157499499697
  0.4002747625634404  0.7997252374365557  0.4001315997508298
  0.4002747625634404  0.7997252374365557  0.5998684002491702
  0.4007968435833752  0.7992031564166203  0.7995842500500301
  0.6000000000000014 -0.0000160894672283  0.0000000000000000
  0.6000000000000014 -0.0001711351386343  0.2001224406244324
  0.6000000000000014  0.0000313888903661  0.4001214584382727
  0.6000000000000014  0.0000313888903661  0.5998785415617278
  0.6000000000000014 -0.0001711351386343  0.7998775593755678
  0.6000000000000014  0.2000160894672311  0.0000000000000000
  0.6000000000000014  0.2001711351386372  0.2001224406244324
  0.6000000000000014  0.1999686111096367  0.4001214584382727
  0.6000000000000014  0.1999686111096367  0.5998785415617278
  0.6000000000000014  0.2001711351386372  0.7998775593755678
  0.6000000000000014  0.4000773138163733  0.0000000000000000
  0.6000000000000014  0.4001735992863863  0.2001113938366917
  0.6000000000000014  0.4000483507288926  0.4002151692958048
  0.6000000000000014  0.4000483507288926  0.5997848307041953
  0.6000000000000014  0.4001735992863863  0.7998886061633083
  0.6000000000000014  0.6000000000000014  0.0000000000000000
  0.6000000000000014  0.6000000000000014  0.2001560481248450
  0.6000000000000014  0.6000000000000014  0.4000719441541180
  0.6000000000000014  0.6000000000000014  0.5999280558458824
  0.6000000000000014  0.6000000000000014  0.7998439518751548
  0.6000000000000014  0.7999226861836224  0.0000000000000000
  0.6000000000000014  0.7998264007136096  0.2001113938366917
  0.6000000000000014  0.7999516492711033  0.4002151692958048
  0.6000000000000014  0.7999516492711033  0.5997848307041953
  0.6000000000000014  0.7998264007136096  0.7998886061633083
  0.7997280279877870 -0.0001056493799405  0.0000000000000000
  0.7991677519535783 -0.0003440718963602  0.2008415887681695
  0.7997610799331309 -0.0000644235067238  0.4002809754688761
  0.7997610799331309 -0.0000644235067238  0.5997190245311239
  0.7991677519535783 -0.0003440718963602  0.7991584112318303
  0.7997280279877870  0.2001056493799434  0.0000000000000000
  0.7991677519535783  0.2003440718963630  0.2008415887681695
  0.7997610799331309  0.2000644235067267  0.4002809754688761
  0.7997610799331309  0.2000644235067267  0.5997190245311239
  0.7991677519535783  0.2003440718963630  0.7991584112318303
  0.7988947547052812  0.4011052452947148  0.0000000000000000
  0.7992031564166203  0.4007968435833752  0.2004157499499697
  0.7997252374365557  0.4002747625634404  0.4001315997508298
  0.7997252374365557  0.4002747625634404  0.5998684002491702
  0.7992031564166203  0.4007968435833752  0.7995842500500301
  0.7999226861836224  0.6000000000000014  0.0000000000000000
  0.7998264007136096  0.6000000000000014  0.2001113938366917
  0.7999516492711033  0.6000000000000014  0.4002151692958048
  0.7999516492711033  0.6000000000000014  0.5997848307041953
  0.7998264007136096  0.6000000000000014  0.7998886061633083
  0.7988947547052812  0.7988947547052812  0.0000000000000000
  0.7992031564166203  0.7992031564166203  0.2004157499499697
  0.7997252374365557  0.7997252374365557  0.4001315997508298
  0.7997252374365557  0.7997252374365557  0.5998684002491702
  0.7992031564166203  0.7992031564166203  0.7995842500500301
  0.1000000000000014  0.1000000000000014  0.1202947326632865
  0.1000000000000014  0.1000000000000014  0.3043604994229873
  0.1000000000000014  0.1000000000000014  0.5000000000000000
  0.1000000000000014  0.1000000000000014  0.6956395005770123
  0.1000000000000014  0.1000000000000014  0.8797052673367136
  0.1000000000000014  0.3018218762209858  0.1010493984427495
  0.1000000000000014  0.3005048266001090  0.3004414051121722
  0.1000000000000014  0.3000806017598620  0.5000000000000000
  0.1000000000000014  0.3005048266001090  0.6995585948878271
  0.1000000000000014  0.3018218762209858  0.8989506015572503
  0.1000000000000014  0.5002241460980189  0.1000843715744734
  0.1000000000000014  0.5003015592767968  0.3001423485708530
  0.1000000000000014  0.5001057909384433  0.5000000000000000
  0.1000000000000014  0.5003015592767968  0.6998576514291470
  0.1000000000000014  0.5002241460980189  0.8999156284255266
  0.1000000000000014  0.6997758539019838  0.1000843715744734
  0.1000000000000014  0.6996984407232061  0.3001423485708530
  0.1000000000000014  0.6998942090615594  0.5000000000000000
  0.1000000000000014  0.6996984407232061  0.6998576514291470
  0.1000000000000014  0.6997758539019838  0.8999156284255266
  0.1000000000000014  0.8981781237790096  0.1010493984427495
  0.1000000000000014  0.8994951733998863  0.3004414051121722
  0.1000000000000014  0.8999193982401338  0.5000000000000000
  0.1000000000000014  0.8994951733998863  0.6995585948878271
  0.1000000000000014  0.8981781237790096  0.8989506015572503
  0.3018218762209858  0.1000000000000014  0.1010493984427495
  0.3005048266001090  0.1000000000000014  0.3004414051121722
  0.3000806017598620  0.1000000000000014  0.5000000000000000
  0.3005048266001090  0.1000000000000014  0.6995585948878271
  0.3018218762209858  0.1000000000000014  0.8989506015572503
  0.3020583342411141  0.3020583342411141  0.1010554816303842
  0.3008853688853780  0.3008853688853780  0.3007476288572368
  0.3003100393933076  0.3003100393933076  0.5000000000000000
  0.3008853688853780  0.3008853688853780  0.6992523711427631
  0.3020583342411141  0.3020583342411141  0.8989445183696156
  0.3001243288277645  0.5002667225388329  0.1000189031122941
  0.3002536865207611  0.5003266754985540  0.3003336449855826
  0.3001164134926205  0.5001575518415479  0.5000000000000000
  0.3002536865207611  0.5003266754985540  0.6996663550144175
  0.3001243288277645  0.5002667225388329  0.8999810968877058
  0.3001243288277645  0.6997332774611700  0.1000189031122941
  0.3002536865207611  0.6996733245014488  0.3003336449855826
  0.3001164134926205  0.6998424481584550  0.5000000000000000
  0.3002536865207611  0.6996733245014488  0.6996663550144175
  0.3001243288277645  0.6997332774611700  0.8999810968877058
  0.3020583342411141  0.8979416657588815  0.1010554816303842
  0.3008853688853780  0.8991146311146178  0.3007476288572368
  0.3003100393933076  0.8996899606066880  0.5000000000000000
  0.3008853688853780  0.8991146311146178  0.6992523711427631
  0.3020583342411141  0.8979416657588815  0.8989445183696156
  0.5002241460980189  0.1000000000000014  0.1000843715744734
  0.5003015592767968  0.1000000000000014  0.3001423485708530
  0.5001057909384433  0.1000000000000014  0.5000000000000000
  0.5003015592767968  0.1000000000000014  0.6998576514291470
  0.5002241460980189  0.1000000000000014  0.8999156284255266
  0.5002667225388329  0.3001243288277645  0.1000189031122941
  0.5003266754985540  0.3002536865207611  0.3003336449855826
  0.5001575518415479  0.3001164134926205  0.5000000000000000
  0.5003266754985540  0.3002536865207611  0.6996663550144175
  0.5002667225388329  0.3001243288277645  0.8999810968877058
  0.5003219450750197  0.5003219450750197  0.1000587165094278
  0.5002477151180759  0.5002477151180759  0.3003143001372118
  0.5001176498341343  0.5001176498341343  0.5000000000000000
  0.5002477151180759  0.5002477151180759  0.6996856998627885
  0.5003219450750197  0.5003219450750197  0.8999412834905723
  0.5003219450750197  0.6996780549249830  0.1000587165094278
  0.5002477151180759  0.6997522848819270  0.3003143001372118
  0.5001176498341343  0.6998823501658685  0.5000000000000000
  0.5002477151180759  0.6997522848819270  0.6996856998627885
  0.5003219450750197  0.6996780549249830  0.8999412834905723
  0.5002667225388329  0.8998756711722316  0.1000189031122941
  0.5003266754985540  0.8997463134792346  0.3003336449855826
  0.5001575518415479  0.8998835865073753  0.5000000000000000
  0.5003266754985540  0.8997463134792346  0.6996663550144175
  0.5002667225388329  0.8998756711722316  0.8999810968877058
  0.6997758539019838  0.1000000000000014  0.1000843715744734
  0.6996984407232061  0.1000000000000014  0.3001423485708530
  0.6998942090615594  0.1000000000000014  0.5000000000000000
  0.6996984407232061  0.1000000000000014  0.6998576514291470
  0.6997758539019838  0.1000000000000014  0.8999156284255266
  0.6997332774611700  0.3001243288277645  0.1000189031122941
  0.6996733245014488  0.3002536865207611  0.3003336449855826
  0.6998424481584550  0.3001164134926205  0.5000000000000000
  0.6996733245014488  0.3002536865207611  0.6996663550144175
  0.6997332774611700  0.3001243288277645  0.8999810968877058
  0.6996780549249830  0.5003219450750197  0.1000587165094278
  0.6997522848819270  0.5002477151180759  0.3003143001372118
  0.6998823501658685  0.5001176498341343  0.5000000000000000
  0.6997522848819270  0.5002477151180759  0.6996856998627885
  0.6996780549249830  0.5003219450750197  0.8999412834905723
  0.6996780549249830  0.6996780549249830  0.1000587165094278
  0.6997522848819270  0.6997522848819270  0.3003143001372118
  0.6998823501658685  0.6998823501658685  0.5000000000000000
  0.6997522848819270  0.6997522848819270  0.6996856998627885
  0.6996780549249830  0.6996780549249830  0.8999412834905723
  0.6997332774611700  0.8998756711722316  0.1000189031122941
  0.6996733245014488  0.8997463134792346  0.3003336449855826
  0.6998424481584550  0.8998835865073753  0.5000000000000000
  0.6996733245014488  0.8997463134792346  0.6996663550144175
  0.6997332774611700  0.8998756711722316  0.8999810968877058
  0.8981781237790096  0.1000000000000014  0.1010493984427495
  0.8994951733998863  0.1000000000000014  0.3004414051121722
  0.8999193982401338  0.1000000000000014  0.5000000000000000
  0.8994951733998863  0.1000000000000014  0.6995585948878271
  0.8981781237790096  0.1000000000000014  0.8989506015572503
  0.8979416657588815  0.3020583342411141  0.1010554816303842
  0.8991146311146178  0.3008853688853780  0.3007476288572368
  0.8996899606066880  0.3003100393933076  0.5000000000000000
  0.8991146311146178  0.3008853688853780  0.6992523711427631
  0.8979416657588815  0.3020583342411141  0.8989445183696156
  0.8998756711722316  0.5002667225388329  0.1000189031122941
  0.8997463134792346  0.5003266754985540  0.3003336449855826
  0.8998835865073753  0.5001575518415479  0.5000000000000000
  0.8997463134792346  0.5003266754985540  0.6996663550144175
  0.8998756711722316  0.5002667225388329  0.8999810968877058
  0.8998756711722316  0.6997332774611700  0.1000189031122941
  0.8997463134792346  0.6996733245014488  0.3003336449855826
  0.8998835865073753  0.6998424481584550  0.5000000000000000
  0.8997463134792346  0.6996733245014488  0.6996663550144175
  0.8998756711722316  0.6997332774611700  0.8999810968877058
  0.8979416657588815  0.8979416657588815  0.1010554816303842
  0.8991146311146178  0.8991146311146178  0.3007476288572368
  0.8996899606066880  0.8996899606066880  0.5000000000000000
  0.8991146311146178  0.8991146311146178  0.6992523711427631
  0.8979416657588815  0.8979416657588815  0.8989445183696156
  0.1000000000000014  0.1000000000000014  0.0000000000000000
 
  0.00000000E+00  0.00000000E+00  0.00000000E+00
  0.00000000E+00  0.00000000E+00  0.00000000E+00
  0.00000000E+00  0.00000000E+00  0.00000000E+00
  0.00000000E+00  0.00000000E+00  0.00000000E+00
  0.00000000E+00  0.00000000E+00  0.00000000E+00
  0.00000000E+00  0.00000000E+00  0.00000000E+00
  0.00000000E+00  0.00000000E+00  0.00000000E+00
  0.00000000E+00  0.00000000E+00  0.00000000E+00
  0.00000000E+00  0.00000000E+00  0.00000000E+00
  0.00000000E+00  0.00000000E+00  0.00000000E+00
  0.00000000E+00  0.00000000E+00  0.00000000E+00
  0.00000000E+00  0.00000000E+00  0.00000000E+00
  0.00000000E+00  0.00000000E+00  0.00000000E+00
  0.00000000E+00  0.00000000E+00  0.00000000E+00
  0.00000000E+00  0.00000000E+00  0.00000000E+00
  0.00000000E+00  0.00000000E+00  0.00000000E+00
  0.00000000E+00  0.00000000E+00  0.00000000E+00
  0.00000000E+00  0.00000000E+00  0.00000000E+00
  0.00000000E+00  0.00000000E+00  0.00000000E+00
  0.00000000E+00  0.00000000E+00  0.00000000E+00
  0.00000000E+00  0.00000000E+00  0.00000000E+00
  0.00000000E+00  0.00000000E+00  0.00000000E+00
  0.00000000E+00  0.00000000E+00  0.00000000E+00
  0.00000000E+00  0.00000000E+00  0.00000000E+00
  0.00000000E+00  0.00000000E+00  0.00000000E+00
  0.00000000E+00  0.00000000E+00  0.00000000E+00
  0.00000000E+00  0.00000000E+00  0.00000000E+00
  0.00000000E+00  0.00000000E+00  0.00000000E+00
  0.00000000E+00  0.00000000E+00  0.00000000E+00
  0.00000000E+00  0.00000000E+00  0.00000000E+00
  0.00000000E+00  0.00000000E+00  0.00000000E+00
  0.00000000E+00  0.00000000E+00  0.00000000E+00
  0.00000000E+00  0.00000000E+00  0.00000000E+00
  0.00000000E+00  0.00000000E+00  0.00000000E+00
  0.00000000E+00  0.00000000E+00  0.00000000E+00
  0.00000000E+00  0.00000000E+00  0.00000000E+00
  0.00000000E+00  0.00000000E+00  0.00000000E+00
  0.00000000E+00  0.00000000E+00  0.00000000E+00
  0.00000000E+00  0.00000000E+00  0.00000000E+00
  0.00000000E+00  0.00000000E+00  0.00000000E+00
  0.00000000E+00  0.00000000E+00  0.00000000E+00
  0.00000000E+00  0.00000000E+00  0.00000000E+00
  0.00000000E+00  0.00000000E+00  0.00000000E+00
  0.00000000E+00  0.00000000E+00  0.00000000E+00
  0.00000000E+00  0.00000000E+00  0.00000000E+00
  0.00000000E+00  0.00000000E+00  0.00000000E+00
  0.00000000E+00  0.00000000E+00  0.00000000E+00
  0.00000000E+00  0.00000000E+00  0.00000000E+00
  0.00000000E+00  0.00000000E+00  0.00000000E+00
  0.00000000E+00  0.00000000E+00  0.00000000E+00
  0.00000000E+00  0.00000000E+00  0.00000000E+00
  0.00000000E+00  0.00000000E+00  0.00000000E+00
  0.00000000E+00  0.00000000E+00  0.00000000E+00
  0.00000000E+00  0.00000000E+00  0.00000000E+00
  0.00000000E+00  0.00000000E+00  0.00000000E+00
  0.00000000E+00  0.00000000E+00  0.00000000E+00
  0.00000000E+00  0.00000000E+00  0.00000000E+00
  0.00000000E+00  0.00000000E+00  0.00000000E+00
  0.00000000E+00  0.00000000E+00  0.00000000E+00
  0.00000000E+00  0.00000000E+00  0.00000000E+00
  0.00000000E+00  0.00000000E+00  0.00000000E+00
  0.00000000E+00  0.00000000E+00  0.00000000E+00
  0.00000000E+00  0.00000000E+00  0.00000000E+00
  0.00000000E+00  0.00000000E+00  0.00000000E+00
  0.00000000E+00  0.00000000E+00  0.00000000E+00
  0.00000000E+00  0.00000000E+00  0.00000000E+00
  0.00000000E+00  0.00000000E+00  0.00000000E+00
  0.00000000E+00  0.00000000E+00  0.00000000E+00
  0.00000000E+00  0.00000000E+00  0.00000000E+00
  0.00000000E+00  0.00000000E+00  0.00000000E+00
  0.00000000E+00  0.00000000E+00  0.00000000E+00
  0.00000000E+00  0.00000000E+00  0.00000000E+00
  0.00000000E+00  0.00000000E+00  0.00000000E+00
  0.00000000E+00  0.00000000E+00  0.00000000E+00
  0.00000000E+00  0.00000000E+00  0.00000000E+00
  0.00000000E+00  0.00000000E+00  0.00000000E+00
  0.00000000E+00  0.00000000E+00  0.00000000E+00
  0.00000000E+00  0.00000000E+00  0.00000000E+00
  0.00000000E+00  0.00000000E+00  0.00000000E+00
  0.00000000E+00  0.00000000E+00  0.00000000E+00
  0.00000000E+00  0.00000000E+00  0.00000000E+00
  0.00000000E+00  0.00000000E+00  0.00000000E+00
  0.00000000E+00  0.00000000E+00  0.00000000E+00
  0.00000000E+00  0.00000000E+00  0.00000000E+00
  0.00000000E+00  0.00000000E+00  0.00000000E+00
  0.00000000E+00  0.00000000E+00  0.00000000E+00
  0.00000000E+00  0.00000000E+00  0.00000000E+00
  0.00000000E+00  0.00000000E+00  0.00000000E+00
  0.00000000E+00  0.00000000E+00  0.00000000E+00
  0.00000000E+00  0.00000000E+00  0.00000000E+00
  0.00000000E+00  0.00000000E+00  0.00000000E+00
  0.00000000E+00  0.00000000E+00  0.00000000E+00
  0.00000000E+00  0.00000000E+00  0.00000000E+00
  0.00000000E+00  0.00000000E+00  0.00000000E+00
  0.00000000E+00  0.00000000E+00  0.00000000E+00
  0.00000000E+00  0.00000000E+00  0.00000000E+00
  0.00000000E+00  0.00000000E+00  0.00000000E+00
  0.00000000E+00  0.00000000E+00  0.00000000E+00
  0.00000000E+00  0.00000000E+00  0.00000000E+00
  0.00000000E+00  0.00000000E+00  0.00000000E+00
  0.00000000E+00  0.00000000E+00  0.00000000E+00
  0.00000000E+00  0.00000000E+00  0.00000000E+00
  0.00000000E+00  0.00000000E+00  0.00000000E+00
  0.00000000E+00  0.00000000E+00  0.00000000E+00
  0.00000000E+00  0.00000000E+00  0.00000000E+00
  0.00000000E+00  0.00000000E+00  0.00000000E+00
  0.00000000E+00  0.00000000E+00  0.00000000E+00
  0.00000000E+00  0.00000000E+00  0.00000000E+00
  0.00000000E+00  0.00000000E+00  0.00000000E+00
  0.00000000E+00  0.00000000E+00  0.00000000E+00
  0.00000000E+00  0.00000000E+00  0.00000000E+00
  0.00000000E+00  0.00000000E+00  0.00000000E+00
  0.00000000E+00  0.00000000E+00  0.00000000E+00
  0.00000000E+00  0.00000000E+00  0.00000000E+00
  0.00000000E+00  0.00000000E+00  0.00000000E+00
  0.00000000E+00  0.00000000E+00  0.00000000E+00
  0.00000000E+00  0.00000000E+00  0.00000000E+00
  0.00000000E+00  0.00000000E+00  0.00000000E+00
  0.00000000E+00  0.00000000E+00  0.00000000E+00
  0.00000000E+00  0.00000000E+00  0.00000000E+00
  0.00000000E+00  0.00000000E+00  0.00000000E+00
  0.00000000E+00  0.00000000E+00  0.00000000E+00
  0.00000000E+00  0.00000000E+00  0.00000000E+00
  0.00000000E+00  0.00000000E+00  0.00000000E+00
  0.00000000E+00  0.00000000E+00  0.00000000E+00
  0.00000000E+00  0.00000000E+00  0.00000000E+00
  0.00000000E+00  0.00000000E+00  0.00000000E+00
  0.00000000E+00  0.00000000E+00  0.00000000E+00
  0.00000000E+00  0.00000000E+00  0.00000000E+00
  0.00000000E+00  0.00000000E+00  0.00000000E+00
  0.00000000E+00  0.00000000E+00  0.00000000E+00
  0.00000000E+00  0.00000000E+00  0.00000000E+00
  0.00000000E+00  0.00000000E+00  0.00000000E+00
  0.00000000E+00  0.00000000E+00  0.00000000E+00
  0.00000000E+00  0.00000000E+00  0.00000000E+00
  0.00000000E+00  0.00000000E+00  0.00000000E+00
  0.00000000E+00  0.00000000E+00  0.00000000E+00
  0.00000000E+00  0.00000000E+00  0.00000000E+00
  0.00000000E+00  0.00000000E+00  0.00000000E+00
  0.00000000E+00  0.00000000E+00  0.00000000E+00
  0.00000000E+00  0.00000000E+00  0.00000000E+00
  0.00000000E+00  0.00000000E+00  0.00000000E+00
  0.00000000E+00  0.00000000E+00  0.00000000E+00
  0.00000000E+00  0.00000000E+00  0.00000000E+00
  0.00000000E+00  0.00000000E+00  0.00000000E+00
  0.00000000E+00  0.00000000E+00  0.00000000E+00
  0.00000000E+00  0.00000000E+00  0.00000000E+00
  0.00000000E+00  0.00000000E+00  0.00000000E+00
  0.00000000E+00  0.00000000E+00  0.00000000E+00
  0.00000000E+00  0.00000000E+00  0.00000000E+00
  0.00000000E+00  0.00000000E+00  0.00000000E+00
  0.00000000E+00  0.00000000E+00  0.00000000E+00
  0.00000000E+00  0.00000000E+00  0.00000000E+00
  0.00000000E+00  0.00000000E+00  0.00000000E+00
  0.00000000E+00  0.00000000E+00  0.00000000E+00
  0.00000000E+00  0.00000000E+00  0.00000000E+00
  0.00000000E+00  0.00000000E+00  0.00000000E+00
  0.00000000E+00  0.00000000E+00  0.00000000E+00
  0.00000000E+00  0.00000000E+00  0.00000000E+00
  0.00000000E+00  0.00000000E+00  0.00000000E+00
  0.00000000E+00  0.00000000E+00  0.00000000E+00
  0.00000000E+00  0.00000000E+00  0.00000000E+00
  0.00000000E+00  0.00000000E+00  0.00000000E+00
  0.00000000E+00  0.00000000E+00  0.00000000E+00
  0.00000000E+00  0.00000000E+00  0.00000000E+00
  0.00000000E+00  0.00000000E+00  0.00000000E+00
  0.00000000E+00  0.00000000E+00  0.00000000E+00
  0.00000000E+00  0.00000000E+00  0.00000000E+00
  0.00000000E+00  0.00000000E+00  0.00000000E+00
  0.00000000E+00  0.00000000E+00  0.00000000E+00
  0.00000000E+00  0.00000000E+00  0.00000000E+00
  0.00000000E+00  0.00000000E+00  0.00000000E+00
  0.00000000E+00  0.00000000E+00  0.00000000E+00
  0.00000000E+00  0.00000000E+00  0.00000000E+00
  0.00000000E+00  0.00000000E+00  0.00000000E+00
  0.00000000E+00  0.00000000E+00  0.00000000E+00
  0.00000000E+00  0.00000000E+00  0.00000000E+00
  0.00000000E+00  0.00000000E+00  0.00000000E+00
  0.00000000E+00  0.00000000E+00  0.00000000E+00
  0.00000000E+00  0.00000000E+00  0.00000000E+00
  0.00000000E+00  0.00000000E+00  0.00000000E+00
  0.00000000E+00  0.00000000E+00  0.00000000E+00
  0.00000000E+00  0.00000000E+00  0.00000000E+00
  0.00000000E+00  0.00000000E+00  0.00000000E+00
  0.00000000E+00  0.00000000E+00  0.00000000E+00
  0.00000000E+00  0.00000000E+00  0.00000000E+00
  0.00000000E+00  0.00000000E+00  0.00000000E+00
  0.00000000E+00  0.00000000E+00  0.00000000E+00
  0.00000000E+00  0.00000000E+00  0.00000000E+00
  0.00000000E+00  0.00000000E+00  0.00000000E+00
  0.00000000E+00  0.00000000E+00  0.00000000E+00
  0.00000000E+00  0.00000000E+00  0.00000000E+00
  0.00000000E+00  0.00000000E+00  0.00000000E+00
  0.00000000E+00  0.00000000E+00  0.00000000E+00
  0.00000000E+00  0.00000000E+00  0.00000000E+00
  0.00000000E+00  0.00000000E+00  0.00000000E+00
  0.00000000E+00  0.00000000E+00  0.00000000E+00
  0.00000000E+00  0.00000000E+00  0.00000000E+00
  0.00000000E+00  0.00000000E+00  0.00000000E+00
  0.00000000E+00  0.00000000E+00  0.00000000E+00
  0.00000000E+00  0.00000000E+00  0.00000000E+00
  0.00000000E+00  0.00000000E+00  0.00000000E+00
  0.00000000E+00  0.00000000E+00  0.00000000E+00
  0.00000000E+00  0.00000000E+00  0.00000000E+00
  0.00000000E+00  0.00000000E+00  0.00000000E+00
  0.00000000E+00  0.00000000E+00  0.00000000E+00
  0.00000000E+00  0.00000000E+00  0.00000000E+00
  0.00000000E+00  0.00000000E+00  0.00000000E+00
  0.00000000E+00  0.00000000E+00  0.00000000E+00
  0.00000000E+00  0.00000000E+00  0.00000000E+00
  0.00000000E+00  0.00000000E+00  0.00000000E+00
  0.00000000E+00  0.00000000E+00  0.00000000E+00
  0.00000000E+00  0.00000000E+00  0.00000000E+00
  0.00000000E+00  0.00000000E+00  0.00000000E+00
  0.00000000E+00  0.00000000E+00  0.00000000E+00
  0.00000000E+00  0.00000000E+00  0.00000000E+00
  0.00000000E+00  0.00000000E+00  0.00000000E+00
  0.00000000E+00  0.00000000E+00  0.00000000E+00
  0.00000000E+00  0.00000000E+00  0.00000000E+00
  0.00000000E+00  0.00000000E+00  0.00000000E+00
  0.00000000E+00  0.00000000E+00  0.00000000E+00
  0.00000000E+00  0.00000000E+00  0.00000000E+00
  0.00000000E+00  0.00000000E+00  0.00000000E+00
  0.00000000E+00  0.00000000E+00  0.00000000E+00
  0.00000000E+00  0.00000000E+00  0.00000000E+00
  0.00000000E+00  0.00000000E+00  0.00000000E+00
  0.00000000E+00  0.00000000E+00  0.00000000E+00
  0.00000000E+00  0.00000000E+00  0.00000000E+00
  0.00000000E+00  0.00000000E+00  0.00000000E+00
  0.00000000E+00  0.00000000E+00  0.00000000E+00
  0.00000000E+00  0.00000000E+00  0.00000000E+00
  0.00000000E+00  0.00000000E+00  0.00000000E+00
  0.00000000E+00  0.00000000E+00  0.00000000E+00
  0.00000000E+00  0.00000000E+00  0.00000000E+00
  0.00000000E+00  0.00000000E+00  0.00000000E+00
  0.00000000E+00  0.00000000E+00  0.00000000E+00
  0.00000000E+00  0.00000000E+00  0.00000000E+00
  0.00000000E+00  0.00000000E+00  0.00000000E+00
  0.00000000E+00  0.00000000E+00  0.00000000E+00
  0.00000000E+00  0.00000000E+00  0.00000000E+00
  0.00000000E+00  0.00000000E+00  0.00000000E+00
  0.00000000E+00  0.00000000E+00  0.00000000E+00
  0.00000000E+00  0.00000000E+00  0.00000000E+00
  0.00000000E+00  0.00000000E+00  0.00000000E+00
  0.00000000E+00  0.00000000E+00  0.00000000E+00
  0.00000000E+00  0.00000000E+00  0.00000000E+00
  0.00000000E+00  0.00000000E+00  0.00000000E+00
  0.00000000E+00  0.00000000E+00  0.00000000E+00
  0.00000000E+00  0.00000000E+00  0.00000000E+00
  0.00000000E+00  0.00000000E+00  0.00000000E+00
  0.00000000E+00  0.00000000E+00  0.00000000E+00
