Al  O                                   
    1.000000000000000     
    17.1805725098000011    0.0000000000000000    0.0000000000000000
     8.5902872455000008   14.8788116730999995    0.0000000000000000
     0.0000000000000000    0.0000000000000000   36.3999999999999986
   Al   O 
   252    64
Direct
  0.4453424913727650  0.4453425213727604  0.0682083488309313
  0.4453501896882809  0.7773249051558596  0.0687672733803138
  0.4453424613727625  0.1093150172544771  0.0682083488309313
  0.7773248451558618  0.4453502196882763  0.0687672733803138
  0.7773249051558596  0.7773249051558596  0.0687672733803138
  0.7776042308545401  0.1111979140727304  0.0679171976760590
  0.1093148982544779  0.4453425213727604  0.0682083488309313
  0.1111979140727304  0.7776042908545380  0.0679171976760590
  0.1111977950727312  0.1111979140727304  0.0679171976760590
  0.5553820663345128  0.5553821263345107  0.1319896497406547
  0.5553820663345128  0.8892358073309692  0.1319896497406547
  0.5564596482762122  0.2217702648618941  0.1319551504138231
  0.8892358073309692  0.5553821263345107  0.1319896497406547
  0.8892550835594728  0.8892551435594707  0.1323106937497235
  0.8892551435594707  0.2214898328810540  0.1323106937497235
  0.2217701458618949  0.5564597082762101  0.1319551504138231
  0.2214897138810548  0.8892551435594707  0.1323106937497235
  0.2217701458618949  0.2217702648618941  0.1319551504138231
  0.6666666269999979  0.6666666269999979  0.1946379314529581
  0.6656012116088307  0.0008663868377074  0.1943808492662560
  0.6656011516088257  0.3335323425534676  0.1943808492662560
  0.0008663868377074  0.6656011516088257  0.1943808492662560
  0.0000000000000000 -0.0000000000000000  0.1942594029138271
  0.0008663868377074  0.3335323425534676  0.1943808492662560
  0.3335324615534668  0.6656011516088257  0.1943808492662560
  0.3335324615534668  0.0008663868377074  0.1943808492662560
  0.3333332540000029  0.3333332540000029  0.1943950104457086
  0.7769624028544855  0.7769624028544855  0.2559621397854048
  0.7773318341035711  0.1113341124482152  0.2565180393722812
  0.7769624028544855  0.4460751942910285  0.2559621397854048
  0.1113341124482152  0.7773318941035690  0.2565180393722812
  0.1113339934482160  0.1113341124482152  0.2565180393722812
  0.1098939184502426  0.4450530407748822  0.2552601534460778
  0.4460751942910285  0.7769624028544855  0.2559621397854048
  0.4450529217748759  0.1098939184502426  0.2552601534460778
  0.4450530407748822  0.4450530407748822  0.2552601534460778
  0.8927254726487952  0.8927255326487931  0.3151141831434293
  0.8927255326487931  0.2145490547024093  0.3151141831434293
  0.8924077243156437  0.5537961378421747  0.3161264402307377
  0.2145489357024102  0.8927255326487931  0.3151141831434293
  0.2206562987376830  0.2206564177376822  0.3165595424768877
  0.2206561797376838  0.5586874025246341  0.3165595424768877
  0.5537960188421756  0.8924077843156416  0.3161264402307377
  0.5586872835246349  0.2206564177376822  0.3165595424768877
  0.5537961378421747  0.5537961378421747  0.3161264402307377
  0.0000000000000000 -0.0000000000000000  0.3810967508116815
  0.0050671171037010  0.3293931375405693  0.3779469067958499
  0.0050671171037010  0.6655396263557307  0.3779469067958499
  0.3293932565405685  0.0050671171037010  0.3779469067958499
  0.3333332540000029  0.3333332540000029  0.3678321891763209
  0.3293931375405693  0.6655396263557307  0.3779469067958499
  0.6655396263557307  0.0050671171037010  0.3779469067958499
  0.6655397453557299  0.3293931375405693  0.3779469067958499
  0.6666667459999971  0.6666666269999979  0.3876162795608609
  0.1154387144921414  0.1154388334921405  0.4846280626996279
  0.1215477488802162  0.4392261255598954  0.4581989647781410
  0.1154387144921414  0.7691224520157182  0.4846280626996279
  0.4392260065598891  0.1215477488802162  0.4581989647781410
  0.4392261255598954  0.4392261255598954  0.4581989647781410
  0.4629265869183266  0.7685367065408365  0.4401888044802429
  0.7691224520157182  0.1154388334921405  0.4846280626996279
  0.7685368255408357  0.4629265869183266  0.4401888044802429
  0.7685365875408373  0.7685367065408365  0.4401888044802429
  0.2773248751558642  0.2773249051558596  0.0687672733803138
  0.2776042608545432  0.6111979140727302  0.0679171976760590
  0.2773249051558596  0.9453502496882787  0.0687672733803138
  0.6111978540727323  0.2776042908545386  0.0679171976760590
  0.6111978540727323  0.6111979140727302  0.0679171976760590
  0.6093149572544793  0.9453425513727627  0.0682083488309313
  0.9453501896882809  0.2773249051558596  0.0687672733803138
  0.9453425513727627  0.6093150172544771  0.0682083488309313
  0.9453424913727648  0.9453425513727627  0.0682083488309313
  0.3892551435594707  0.3892551435594707  0.1323106937497235
  0.3892551435594707  0.7214897138810551  0.1323106937497235
  0.3892358363309750  0.0553821263345108  0.1319896497406547
  0.7214897138810551  0.3892551435594707  0.1323106937497235
  0.7217701458618949  0.7217701458618949  0.1319551504138231
  0.7217702058618928  0.0564597082762101  0.1319551504138231
  0.0553821263345108  0.3892358073309691  0.1319896497406547
  0.0564597082762101  0.7217701458618949  0.1319551504138231
  0.0553820073345116  0.0553821263345108  0.1319896497406547
  0.5000000000000000  0.5000000000000000  0.1942594029138271
  0.5008664468377051  0.8335324015534615  0.1943808492662560
  0.5008663568377048  0.1656012706088251  0.1943808492662560
  0.8335324015534615  0.5008663868377072  0.1943808492662560
  0.8333333730000021  0.8333333129999971  0.1943950104457086
  0.8335324015534615  0.1656012706088251  0.1943808492662560
  0.1656011516088259  0.5008663868377072  0.1943808492662560
  0.1656011516088259  0.8335324015534615  0.1943808492662560
  0.1666666269999979  0.1666667459999971  0.1946379314529581
  0.6113340524482171  0.6113341124482150  0.2565180393722812
  0.6098938584502448  0.9450531007748803  0.2552601534460778
  0.6113341124482150  0.2773318941035688  0.2565180393722812
  0.9450531007748803  0.6098939184502427  0.2552601534460778
  0.9450530407748824  0.9450531007748803  0.2552601534460778
  0.9460751942910285  0.2769624028544858  0.2559621397854048
  0.2773317751035697  0.6113341124482150  0.2565180393722812
  0.2769624028544858  0.9460752542910263  0.2559621397854048
  0.2769624028544858  0.2769624028544858  0.2559621397854048
  0.7206562987376831  0.7206562987376831  0.3165595424768877
  0.7206563587376810  0.0586874025246342  0.3165595424768877
  0.7145489357024097  0.3927254726487955  0.3151141831434293
  0.0586874025246342  0.7206562987376831  0.3165595424768877
  0.0537960188421755  0.0537961378421747  0.3161264402307377
  0.0537961378421747  0.3924077243156435  0.3161264402307377
  0.3927255916487947  0.7145489357024097  0.3151141831434293
  0.3924077243156435  0.0537961378421747  0.3161264402307377
  0.3927255916487947  0.3927254726487955  0.3151141831434293
  0.8333333730000021  0.8333333129999971  0.3678321891763209
  0.8293931965405640  0.1655397453557296  0.3779469067958499
  0.8293931375405698  0.5050671171037008  0.3779469067958499
  0.1655396263557304  0.8293931965405640  0.3779469067958499
  0.1666666269999979  0.1666667459999971  0.3876162795608609
  0.1655396263557304  0.5050671171037008  0.3779469067958499
  0.5050671171037008  0.8293931965405640  0.3779469067958500
  0.5050671171037008  0.1655397453557296  0.3779469067958499
  0.5000001189999992  0.5000000000000000  0.3810967508116815
  0.9392261255598957  0.9392261855598935  0.4581989647781410
  0.9629265869183260  0.2685367065408370  0.4401888044802429
  0.9392261855598936  0.6215476298802171  0.4581989647781410
  0.2685367065408370  0.9629266469183239  0.4401888044802429
  0.2685367065408370  0.2685367065408370  0.4401888044802429
  0.2691224520157181  0.6154387144921415  0.4846280626996279
  0.6215477488802162  0.9392261855598935  0.4581989647781410
  0.6154389524921399  0.2691224520157181  0.4846280626996279
  0.6154387144921415  0.6154387144921415  0.4846280626996279
  0.2773248751558642  0.4453502196882763  0.0687672733803138
  0.2773248451558617  0.7773249051558596  0.0687672733803138
  0.2776042608545432  0.1111979140727304  0.0679171976760590
  0.6093149572544793  0.4453425213727604  0.0682083488309313
  0.6111977950727310  0.7776042908545380  0.0679171976760590
  0.6111978540727323  0.1111979140727304  0.0679171976760590
  0.9453425513727627  0.4453425213727604  0.0682083488309313
  0.9453501896882809  0.7773249051558596  0.0687672733803138
  0.9453425513727627  0.1093150172544771  0.0682083488309313
  0.3892357773309737  0.5553821263345107  0.1319896497406547
  0.3892551135594753  0.8892551435594707  0.1323106937497235
  0.3892550535594704  0.2214898328810540  0.1323106937497235
  0.7217700858618900  0.5564597082762101  0.1319551504138231
  0.7214897138810551  0.8892551435594707  0.1323106937497235
  0.7217700858618900  0.2217702648618941  0.1319551504138231
  0.0553820073345116  0.5553821263345107  0.1319896497406547
  0.0553821263345108  0.8892358073309692  0.1319896497406547
  0.0564595892762109  0.2217702648618941  0.1319551504138231
  0.5008663868377072  0.6656011516088257  0.1943808492662560
  0.4999999400000021 -0.0000000000000000  0.1942594029138271
  0.5008663868377072  0.3335323425534676  0.1943808492662560
  0.8335324615534665  0.6656011516088257  0.1943808492662560
  0.8335324015534615  0.0008663868377074  0.1943808492662560
  0.8333333730000021  0.3333332540000029  0.1943950104457086
  0.1666667459999971  0.6666666269999979  0.1946379314529581
  0.1656011516088259  0.0008663868377074  0.1943808492662560
  0.1656012706088251  0.3335323425534676  0.1943808492662560
  0.6113339934482158  0.7773318941035690  0.2565180393722812
  0.6113340524482171  0.1113341124482152  0.2565180393722812
  0.6098937994502435  0.4450530407748822  0.2552601534460778
  0.9460751942910285  0.7769624028544855  0.2559621397854048
  0.9450531007748803  0.1098939184502426  0.2552601534460778
  0.9450530407748824  0.4450530407748822  0.2552601534460778
  0.2769624028544858  0.7769624028544855  0.2559621397854048
  0.2773318941035688  0.1113341124482152  0.2565180393722812
  0.2769622838544866  0.4460751942910285  0.2559621397854048
  0.7145489357024097  0.8927255326487931  0.3151141831434293
  0.7206562387376781  0.2206564177376822  0.3165595424768877
  0.7206562987376831  0.5586874025246341  0.3165595424768877
  0.0537961378421747  0.8924077843156416  0.3161264402307377
  0.0586872835246350  0.2206564177376822  0.3165595424768877
  0.0537961378421747  0.5537961378421747  0.3161264402307377
  0.3927255916487947  0.8927255326487931  0.3151141831434293
  0.3927253536487963  0.2145490547024093  0.3151141831434293
  0.3924077243156435  0.5537961378421747  0.3161264402307377
  0.8293931965405640  0.0050671171037010  0.3779469067958499
  0.8333333730000021  0.3333332540000029  0.3678321891763209
  0.8293931965405640  0.6655396263557307  0.3779469067958499
  0.1655396263557304  0.0050671171037010  0.3779469067958499
  0.1655397453557296  0.3293931375405693  0.3779469067958499
  0.1666666269999979  0.6666666269999979  0.3876162795608609
  0.4999998810000008 -0.0000000000000000  0.3810967508116815
  0.5050671171037008  0.3293931375405693  0.3779469067958499
  0.5050671171037008  0.6655396263557307  0.3779469067958499
  0.9392261855598936  0.1215477488802162  0.4581989647781410
  0.9392261255598956  0.4392261255598954  0.4581989647781410
  0.9629266469183239  0.7685367065408365  0.4401888044802429
  0.2691224520157181  0.1154388334921405  0.4846280626996279
  0.2685365875408378  0.4629265869183266  0.4401888044802429
  0.2685365875408378  0.7685367065408365  0.4401888044802429
  0.6154387144921415  0.1154388334921405  0.4846280626996279
  0.6215477488802162  0.4392261255598954  0.4581989647781410
  0.6154388334921407  0.7691224520157182  0.4846280626996279
  0.4453502196882763  0.2773249051558596  0.0687672733803138
  0.4453425213727604  0.6093150172544771  0.0682083488309313
  0.4453425213727604  0.9453425513727627  0.0682083488309313
  0.7773249051558596  0.2773249051558596  0.0687672733803138
  0.7776042308545401  0.6111979140727302  0.0679171976760590
  0.7773249051558596  0.9453502496882787  0.0687672733803138
  0.1111979140727304  0.2776042908545386  0.0679171976760590
  0.1111977950727312  0.6111979140727302  0.0679171976760590
  0.1093148982544779  0.9453425513727627  0.0682083488309313
  0.5553821263345107  0.3892358073309691  0.1319896497406547
  0.5564597082762101  0.7217701458618949  0.1319551504138231
  0.5553820663345128  0.0553821263345108  0.1319896497406547
  0.8892550835594728  0.3892551435594707  0.1323106937497235
  0.8892552025594720  0.7214897138810551  0.1323106937497235
  0.8892358073309692  0.0553821263345108  0.1319896497406547
  0.2214897138810548  0.3892551435594707  0.1323106937497235
  0.2217701458618949  0.7217701458618949  0.1319551504138231
  0.2217701458618949  0.0564597082762101  0.1319551504138231
  0.6656012116088307  0.5008663868377072  0.1943808492662560
  0.6656011516088257  0.8335324015534615  0.1943808492662560
  0.6666666870000029  0.1666667459999971  0.1946379314529581
  0.0000000000000000  0.5000000000000000  0.1942594029138271
  0.0008663868377074  0.8335324015534615  0.1943808492662560
  0.0008663868377074  0.1656012706088251  0.1943808492662560
  0.3335323425534676  0.5008663868377072  0.1943808492662560
  0.3333333730000021  0.8333333129999971  0.1943950104457086
  0.3335323425534676  0.1656012706088251  0.1943808492662560
  0.7773318341035711  0.6113341124482150  0.2565180393722812
  0.7769624028544855  0.9460752542910263  0.2559621397854048
  0.7769624028544855  0.2769624028544858  0.2559621397854048
  0.1113339934482160  0.6113341124482150  0.2565180393722812
  0.1098937994502434  0.9450531007748803  0.2552601534460778
  0.1113341124482152  0.2773318941035688  0.2565180393722812
  0.4450530407748822  0.6098939184502427  0.2552601534460778
  0.4450530407748822  0.9450531007748803  0.2552601534460778
  0.4460753132910277  0.2769624028544858  0.2559621397854048
  0.8927255916487944  0.7145489357024097  0.3151141831434293
  0.8924077843156416  0.0537961378421747  0.3161264402307377
  0.8927254726487952  0.3927254726487955  0.3151141831434293
  0.2206562987376830  0.7206562987376831  0.3165595424768877
  0.2206562987376830  0.0586874025246342  0.3165595424768877
  0.2145489357024102  0.3927254726487955  0.3151141831434293
  0.5586872835246349  0.7206562987376831  0.3165595424768877
  0.5537961378421747  0.0537961378421747  0.3161264402307377
  0.5537962568421810  0.3924077243156435  0.3161264402307377
  0.0050671171037010  0.8293931965405640  0.3779469067958499
  0.0050671171037010  0.1655397453557296  0.3779469067958499
  0.0000000000000000  0.5000000000000000  0.3810967508116815
  0.3333333730000021  0.8333333129999971  0.3678321891763209
  0.3293931375405693  0.1655397453557296  0.3779469067958499
  0.3293932565405685  0.5050671171037008  0.3779469067958499
  0.6655397453557299  0.8293931965405640  0.3779469067958499
  0.6666667459999971  0.1666667459999971  0.3876162795608609
  0.6655396263557307  0.5050671171037008  0.3779469067958499
  0.1215476298802170  0.9392261855598935  0.4581989647781410
  0.1154388334921405  0.2691224520157181  0.4846280626996279
  0.1154388334921405  0.6154387144921415  0.4846280626996279
  0.4392261255598954  0.9392261855598935  0.4581989647781410
  0.4629267059183257  0.2685367065408370  0.4401888044802429
  0.4392262445598946  0.6215476298802171  0.4581989647781410
  0.7685368255408357  0.9629266469183239  0.4401888044802429
  0.7685367065408365  0.2685367065408370  0.4401888044802429
  0.7691224520157182  0.6154387144921415  0.4846280626996279
  0.0000000000000000 -0.0000000000000000  0.4527329681370665
  0.0050145607577732  0.1396151164190358  0.4872763193414825
 -0.0126219287049732  0.2563109643524866  0.4880788083928808
  0.0050145607577732  0.3553703228231910  0.4872763193414825
  0.0000000000000000  0.5000000000000000  0.4527329681370665
  0.0050145607577732  0.6396151164190359  0.4872763193414825
 -0.0126219287049732  0.7563109643524871  0.4880788083928808
  0.0050145607577732  0.8553703228231905  0.4872763193414825
  0.1396151164190358  0.0050145607577732  0.4872763193414825
  0.1338372842757093  0.1338372842757093  0.5286453607799312
  0.1338372842757093  0.2323254314485812  0.5286453607799312
  0.1396151164190358  0.3553703228231910  0.4872763193414825
  0.1396151164190358  0.5050145607577730  0.4872763193414825
  0.1338372842757093  0.6338372842757096  0.5286453607799312
  0.1338372842757094  0.7323254314485811  0.5286453607799312
  0.1396151164190358  0.8553703228231905  0.4872763193414825
  0.2563109643524866 -0.0126219287049732  0.4880788083928808
  0.2323254314485812  0.1338372842757093  0.5286453607799312
  0.2563109643524866  0.2563109643524866  0.4880788083928808
  0.2335572663391030  0.3832213668304484  0.4385676032795549
  0.2563109643524866  0.4873780712950269  0.4880788083928808
  0.2323254314485812  0.6338372842757096  0.5286453607799312
  0.2563109643524866  0.7563109643524871  0.4880788083928808
  0.2335572663391030  0.8832213668304487  0.4385676032795549
  0.3553703228231910  0.0050145607577732  0.4872763193414825
  0.3553703228231910  0.1396151164190358  0.4872763193414825
  0.3832213668304484  0.2335572663391031  0.4385676032795549
  0.3832213668304483  0.3832213668304484  0.4385676032795549
  0.3553703228231910  0.5050145607577730  0.4872763193414825
  0.3553703228231910  0.6396151164190359  0.4872763193414825
  0.3832213668304484  0.7335572663391032  0.4385676032795549
  0.3832213668304483  0.8832213668304487  0.4385676032795549
  0.5000000000000000 -0.0000000000000000  0.4527329681370664
  0.5050145607577730  0.1396151164190358  0.4872763193414825
  0.4873780712950269  0.2563109643524866  0.4880788083928808
  0.5050145607577730  0.3553703228231910  0.4872763193414825
  0.5000000000000000  0.5000000000000000  0.4527329681370665
  0.5050145607577730  0.6396151164190359  0.4872763193414825
  0.4873780712950269  0.7563109643524871  0.4880788083928808
  0.5050145607577730  0.8553703228231905  0.4872763193414825
  0.6396151164190359  0.0050145607577732  0.4872763193414825
  0.6338372842757096  0.1338372842757093  0.5286453607799312
  0.6338372842757096  0.2323254314485812  0.5286453607799312
  0.6396151164190359  0.3553703228231910  0.4872763193414825
  0.6396151164190359  0.5050145607577730  0.4872763193414825
  0.6338372842757096  0.6338372842757096  0.5286453607799312
  0.6338372842757096  0.7323254314485811  0.5286453607799312
  0.6396151164190359  0.8553703228231905  0.4872763193414825
  0.7563109643524871 -0.0126219287049732  0.4880788083928808
  0.7323254314485812  0.1338372842757093  0.5286453607799312
  0.7563109643524871  0.2563109643524866  0.4880788083928808
  0.7335572663391032  0.3832213668304484  0.4385676032795549
  0.7563109643524871  0.4873780712950269  0.4880788083928808
  0.7323254314485812  0.6338372842757096  0.5286453607799312
  0.7563109643524871  0.7563109643524871  0.4880788083928808
  0.7335572663391032  0.8832213668304487  0.4385676032795549
  0.8553703228231905  0.0050145607577732  0.4872763193414825
  0.8553703228231905  0.1396151164190358  0.4872763193414825
  0.8832213668304487  0.2335572663391031  0.4385676032795549
  0.8832213668304487  0.3832213668304484  0.4385676032795549
  0.8553703228231905  0.5050145607577730  0.4872763193414825
  0.8553703228231905  0.6396151164190359  0.4872763193414825
  0.8832213668304487  0.7335572663391032  0.4385676032795549
  0.8832213668304487  0.8832213668304487  0.4385676032795549
 
  0.00000000E+00  0.00000000E+00  0.00000000E+00
  0.00000000E+00  0.00000000E+00  0.00000000E+00
  0.00000000E+00  0.00000000E+00  0.00000000E+00
  0.00000000E+00  0.00000000E+00  0.00000000E+00
  0.00000000E+00  0.00000000E+00  0.00000000E+00
  0.00000000E+00  0.00000000E+00  0.00000000E+00
  0.00000000E+00  0.00000000E+00  0.00000000E+00
  0.00000000E+00  0.00000000E+00  0.00000000E+00
  0.00000000E+00  0.00000000E+00  0.00000000E+00
  0.00000000E+00  0.00000000E+00  0.00000000E+00
  0.00000000E+00  0.00000000E+00  0.00000000E+00
  0.00000000E+00  0.00000000E+00  0.00000000E+00
  0.00000000E+00  0.00000000E+00  0.00000000E+00
  0.00000000E+00  0.00000000E+00  0.00000000E+00
  0.00000000E+00  0.00000000E+00  0.00000000E+00
  0.00000000E+00  0.00000000E+00  0.00000000E+00
  0.00000000E+00  0.00000000E+00  0.00000000E+00
  0.00000000E+00  0.00000000E+00  0.00000000E+00
  0.00000000E+00  0.00000000E+00  0.00000000E+00
  0.00000000E+00  0.00000000E+00  0.00000000E+00
  0.00000000E+00  0.00000000E+00  0.00000000E+00
  0.00000000E+00  0.00000000E+00  0.00000000E+00
  0.00000000E+00  0.00000000E+00  0.00000000E+00
  0.00000000E+00  0.00000000E+00  0.00000000E+00
  0.00000000E+00  0.00000000E+00  0.00000000E+00
  0.00000000E+00  0.00000000E+00  0.00000000E+00
  0.00000000E+00  0.00000000E+00  0.00000000E+00
  0.00000000E+00  0.00000000E+00  0.00000000E+00
  0.00000000E+00  0.00000000E+00  0.00000000E+00
  0.00000000E+00  0.00000000E+00  0.00000000E+00
  0.00000000E+00  0.00000000E+00  0.00000000E+00
  0.00000000E+00  0.00000000E+00  0.00000000E+00
  0.00000000E+00  0.00000000E+00  0.00000000E+00
  0.00000000E+00  0.00000000E+00  0.00000000E+00
  0.00000000E+00  0.00000000E+00  0.00000000E+00
  0.00000000E+00  0.00000000E+00  0.00000000E+00
  0.00000000E+00  0.00000000E+00  0.00000000E+00
  0.00000000E+00  0.00000000E+00  0.00000000E+00
  0.00000000E+00  0.00000000E+00  0.00000000E+00
  0.00000000E+00  0.00000000E+00  0.00000000E+00
  0.00000000E+00  0.00000000E+00  0.00000000E+00
  0.00000000E+00  0.00000000E+00  0.00000000E+00
  0.00000000E+00  0.00000000E+00  0.00000000E+00
  0.00000000E+00  0.00000000E+00  0.00000000E+00
  0.00000000E+00  0.00000000E+00  0.00000000E+00
  0.00000000E+00  0.00000000E+00  0.00000000E+00
  0.00000000E+00  0.00000000E+00  0.00000000E+00
  0.00000000E+00  0.00000000E+00  0.00000000E+00
  0.00000000E+00  0.00000000E+00  0.00000000E+00
  0.00000000E+00  0.00000000E+00  0.00000000E+00
  0.00000000E+00  0.00000000E+00  0.00000000E+00
  0.00000000E+00  0.00000000E+00  0.00000000E+00
  0.00000000E+00  0.00000000E+00  0.00000000E+00
  0.00000000E+00  0.00000000E+00  0.00000000E+00
  0.00000000E+00  0.00000000E+00  0.00000000E+00
  0.00000000E+00  0.00000000E+00  0.00000000E+00
  0.00000000E+00  0.00000000E+00  0.00000000E+00
  0.00000000E+00  0.00000000E+00  0.00000000E+00
  0.00000000E+00  0.00000000E+00  0.00000000E+00
  0.00000000E+00  0.00000000E+00  0.00000000E+00
  0.00000000E+00  0.00000000E+00  0.00000000E+00
  0.00000000E+00  0.00000000E+00  0.00000000E+00
  0.00000000E+00  0.00000000E+00  0.00000000E+00
  0.00000000E+00  0.00000000E+00  0.00000000E+00
  0.00000000E+00  0.00000000E+00  0.00000000E+00
  0.00000000E+00  0.00000000E+00  0.00000000E+00
  0.00000000E+00  0.00000000E+00  0.00000000E+00
  0.00000000E+00  0.00000000E+00  0.00000000E+00
  0.00000000E+00  0.00000000E+00  0.00000000E+00
  0.00000000E+00  0.00000000E+00  0.00000000E+00
  0.00000000E+00  0.00000000E+00  0.00000000E+00
  0.00000000E+00  0.00000000E+00  0.00000000E+00
  0.00000000E+00  0.00000000E+00  0.00000000E+00
  0.00000000E+00  0.00000000E+00  0.00000000E+00
  0.00000000E+00  0.00000000E+00  0.00000000E+00
  0.00000000E+00  0.00000000E+00  0.00000000E+00
  0.00000000E+00  0.00000000E+00  0.00000000E+00
  0.00000000E+00  0.00000000E+00  0.00000000E+00
  0.00000000E+00  0.00000000E+00  0.00000000E+00
  0.00000000E+00  0.00000000E+00  0.00000000E+00
  0.00000000E+00  0.00000000E+00  0.00000000E+00
  0.00000000E+00  0.00000000E+00  0.00000000E+00
  0.00000000E+00  0.00000000E+00  0.00000000E+00
  0.00000000E+00  0.00000000E+00  0.00000000E+00
  0.00000000E+00  0.00000000E+00  0.00000000E+00
  0.00000000E+00  0.00000000E+00  0.00000000E+00
  0.00000000E+00  0.00000000E+00  0.00000000E+00
  0.00000000E+00  0.00000000E+00  0.00000000E+00
  0.00000000E+00  0.00000000E+00  0.00000000E+00
  0.00000000E+00  0.00000000E+00  0.00000000E+00
  0.00000000E+00  0.00000000E+00  0.00000000E+00
  0.00000000E+00  0.00000000E+00  0.00000000E+00
  0.00000000E+00  0.00000000E+00  0.00000000E+00
  0.00000000E+00  0.00000000E+00  0.00000000E+00
  0.00000000E+00  0.00000000E+00  0.00000000E+00
  0.00000000E+00  0.00000000E+00  0.00000000E+00
  0.00000000E+00  0.00000000E+00  0.00000000E+00
  0.00000000E+00  0.00000000E+00  0.00000000E+00
  0.00000000E+00  0.00000000E+00  0.00000000E+00
  0.00000000E+00  0.00000000E+00  0.00000000E+00
  0.00000000E+00  0.00000000E+00  0.00000000E+00
  0.00000000E+00  0.00000000E+00  0.00000000E+00
  0.00000000E+00  0.00000000E+00  0.00000000E+00
  0.00000000E+00  0.00000000E+00  0.00000000E+00
  0.00000000E+00  0.00000000E+00  0.00000000E+00
  0.00000000E+00  0.00000000E+00  0.00000000E+00
  0.00000000E+00  0.00000000E+00  0.00000000E+00
  0.00000000E+00  0.00000000E+00  0.00000000E+00
  0.00000000E+00  0.00000000E+00  0.00000000E+00
  0.00000000E+00  0.00000000E+00  0.00000000E+00
  0.00000000E+00  0.00000000E+00  0.00000000E+00
  0.00000000E+00  0.00000000E+00  0.00000000E+00
  0.00000000E+00  0.00000000E+00  0.00000000E+00
  0.00000000E+00  0.00000000E+00  0.00000000E+00
  0.00000000E+00  0.00000000E+00  0.00000000E+00
  0.00000000E+00  0.00000000E+00  0.00000000E+00
  0.00000000E+00  0.00000000E+00  0.00000000E+00
  0.00000000E+00  0.00000000E+00  0.00000000E+00
  0.00000000E+00  0.00000000E+00  0.00000000E+00
  0.00000000E+00  0.00000000E+00  0.00000000E+00
  0.00000000E+00  0.00000000E+00  0.00000000E+00
  0.00000000E+00  0.00000000E+00  0.00000000E+00
  0.00000000E+00  0.00000000E+00  0.00000000E+00
  0.00000000E+00  0.00000000E+00  0.00000000E+00
  0.00000000E+00  0.00000000E+00  0.00000000E+00
  0.00000000E+00  0.00000000E+00  0.00000000E+00
  0.00000000E+00  0.00000000E+00  0.00000000E+00
  0.00000000E+00  0.00000000E+00  0.00000000E+00
  0.00000000E+00  0.00000000E+00  0.00000000E+00
  0.00000000E+00  0.00000000E+00  0.00000000E+00
  0.00000000E+00  0.00000000E+00  0.00000000E+00
  0.00000000E+00  0.00000000E+00  0.00000000E+00
  0.00000000E+00  0.00000000E+00  0.00000000E+00
  0.00000000E+00  0.00000000E+00  0.00000000E+00
  0.00000000E+00  0.00000000E+00  0.00000000E+00
  0.00000000E+00  0.00000000E+00  0.00000000E+00
  0.00000000E+00  0.00000000E+00  0.00000000E+00
  0.00000000E+00  0.00000000E+00  0.00000000E+00
  0.00000000E+00  0.00000000E+00  0.00000000E+00
  0.00000000E+00  0.00000000E+00  0.00000000E+00
  0.00000000E+00  0.00000000E+00  0.00000000E+00
  0.00000000E+00  0.00000000E+00  0.00000000E+00
  0.00000000E+00  0.00000000E+00  0.00000000E+00
  0.00000000E+00  0.00000000E+00  0.00000000E+00
  0.00000000E+00  0.00000000E+00  0.00000000E+00
  0.00000000E+00  0.00000000E+00  0.00000000E+00
  0.00000000E+00  0.00000000E+00  0.00000000E+00
  0.00000000E+00  0.00000000E+00  0.00000000E+00
  0.00000000E+00  0.00000000E+00  0.00000000E+00
  0.00000000E+00  0.00000000E+00  0.00000000E+00
  0.00000000E+00  0.00000000E+00  0.00000000E+00
  0.00000000E+00  0.00000000E+00  0.00000000E+00
  0.00000000E+00  0.00000000E+00  0.00000000E+00
  0.00000000E+00  0.00000000E+00  0.00000000E+00
  0.00000000E+00  0.00000000E+00  0.00000000E+00
  0.00000000E+00  0.00000000E+00  0.00000000E+00
  0.00000000E+00  0.00000000E+00  0.00000000E+00
  0.00000000E+00  0.00000000E+00  0.00000000E+00
  0.00000000E+00  0.00000000E+00  0.00000000E+00
  0.00000000E+00  0.00000000E+00  0.00000000E+00
  0.00000000E+00  0.00000000E+00  0.00000000E+00
  0.00000000E+00  0.00000000E+00  0.00000000E+00
  0.00000000E+00  0.00000000E+00  0.00000000E+00
  0.00000000E+00  0.00000000E+00  0.00000000E+00
  0.00000000E+00  0.00000000E+00  0.00000000E+00
  0.00000000E+00  0.00000000E+00  0.00000000E+00
  0.00000000E+00  0.00000000E+00  0.00000000E+00
  0.00000000E+00  0.00000000E+00  0.00000000E+00
  0.00000000E+00  0.00000000E+00  0.00000000E+00
  0.00000000E+00  0.00000000E+00  0.00000000E+00
  0.00000000E+00  0.00000000E+00  0.00000000E+00
  0.00000000E+00  0.00000000E+00  0.00000000E+00
  0.00000000E+00  0.00000000E+00  0.00000000E+00
  0.00000000E+00  0.00000000E+00  0.00000000E+00
  0.00000000E+00  0.00000000E+00  0.00000000E+00
  0.00000000E+00  0.00000000E+00  0.00000000E+00
  0.00000000E+00  0.00000000E+00  0.00000000E+00
  0.00000000E+00  0.00000000E+00  0.00000000E+00
  0.00000000E+00  0.00000000E+00  0.00000000E+00
  0.00000000E+00  0.00000000E+00  0.00000000E+00
  0.00000000E+00  0.00000000E+00  0.00000000E+00
  0.00000000E+00  0.00000000E+00  0.00000000E+00
  0.00000000E+00  0.00000000E+00  0.00000000E+00
  0.00000000E+00  0.00000000E+00  0.00000000E+00
  0.00000000E+00  0.00000000E+00  0.00000000E+00
  0.00000000E+00  0.00000000E+00  0.00000000E+00
  0.00000000E+00  0.00000000E+00  0.00000000E+00
  0.00000000E+00  0.00000000E+00  0.00000000E+00
  0.00000000E+00  0.00000000E+00  0.00000000E+00
  0.00000000E+00  0.00000000E+00  0.00000000E+00
  0.00000000E+00  0.00000000E+00  0.00000000E+00
  0.00000000E+00  0.00000000E+00  0.00000000E+00
  0.00000000E+00  0.00000000E+00  0.00000000E+00
  0.00000000E+00  0.00000000E+00  0.00000000E+00
  0.00000000E+00  0.00000000E+00  0.00000000E+00
  0.00000000E+00  0.00000000E+00  0.00000000E+00
  0.00000000E+00  0.00000000E+00  0.00000000E+00
  0.00000000E+00  0.00000000E+00  0.00000000E+00
  0.00000000E+00  0.00000000E+00  0.00000000E+00
  0.00000000E+00  0.00000000E+00  0.00000000E+00
  0.00000000E+00  0.00000000E+00  0.00000000E+00
  0.00000000E+00  0.00000000E+00  0.00000000E+00
  0.00000000E+00  0.00000000E+00  0.00000000E+00
  0.00000000E+00  0.00000000E+00  0.00000000E+00
  0.00000000E+00  0.00000000E+00  0.00000000E+00
  0.00000000E+00  0.00000000E+00  0.00000000E+00
  0.00000000E+00  0.00000000E+00  0.00000000E+00
  0.00000000E+00  0.00000000E+00  0.00000000E+00
  0.00000000E+00  0.00000000E+00  0.00000000E+00
  0.00000000E+00  0.00000000E+00  0.00000000E+00
  0.00000000E+00  0.00000000E+00  0.00000000E+00
  0.00000000E+00  0.00000000E+00  0.00000000E+00