New structure                           
    1.000000000000000     
    10.5414999999999992    0.0000000000000000    0.0000000000000000
     0.0000000000000000   10.5414999999999992    0.0000000000000000
     0.0000000000000000    0.0000000000000000   10.5414999999999992
   Ni   O 
   125   125
Direct
  0.0000000000000000  0.0000000000000000  0.0000000000000000
  0.0000000000000000  0.0000000000000000  0.2000000000000028
  0.0000000000000000  0.0000000000000000  0.3999999999999986
  0.0000000000000000  0.0000000000000000  0.6000000000000014
  0.0000000000000000  0.0000000000000000  0.7999999999999972
  0.0000000000000000  0.2000000000000028  0.0000000000000000
  0.0000000000000000  0.2000000000000028  0.2000000000000028
  0.0000000000000000  0.2000000000000028  0.3999999999999986
  0.0000000000000000  0.2000000000000028  0.6000000000000014
  0.0000000000000000  0.2000000000000028  0.7999999999999972
  0.0000000000000000  0.3999999999999986  0.0000000000000000
  0.0000000000000000  0.3999999999999986  0.2000000000000028
  0.0000000000000000  0.3999999999999986  0.3999999999999986
  0.0000000000000000  0.3999999999999986  0.6000000000000014
  0.0000000000000000  0.3999999999999986  0.7999999999999972
  0.0000000000000000  0.6000000000000014  0.0000000000000000
  0.0000000000000000  0.6000000000000014  0.2000000000000028
  0.0000000000000000  0.6000000000000014  0.3999999999999986
  0.0000000000000000  0.6000000000000014  0.6000000000000014
  0.0000000000000000  0.6000000000000014  0.7999999999999972
  0.0000000000000000  0.7999999999999972  0.0000000000000000
  0.0000000000000000  0.7999999999999972  0.2000000000000028
  0.0000000000000000  0.7999999999999972  0.3999999999999986
  0.0000000000000000  0.7999999999999972  0.6000000000000014
  0.0000000000000000  0.7999999999999972  0.7999999999999972
  0.2000000000000028  0.0000000000000000  0.0000000000000000
  0.2000000000000028  0.0000000000000000  0.2000000000000028
  0.2000000000000028  0.0000000000000000  0.3999999999999986
  0.2000000000000028  0.0000000000000000  0.6000000000000014
  0.2000000000000028  0.0000000000000000  0.7999999999999972
  0.2000000000000028  0.2000000000000028  0.0000000000000000
  0.2000000000000028  0.2000000000000028  0.2000000000000028
  0.2000000000000028  0.2000000000000028  0.3999999999999986
  0.2000000000000028  0.2000000000000028  0.6000000000000014
  0.2000000000000028  0.2000000000000028  0.7999999999999972
  0.2000000000000028  0.3999999999999986  0.0000000000000000
  0.2000000000000028  0.3999999999999986  0.2000000000000028
  0.2000000000000028  0.3999999999999986  0.3999999999999986
  0.2000000000000028  0.3999999999999986  0.6000000000000014
  0.2000000000000028  0.3999999999999986  0.7999999999999972
  0.2000000000000028  0.6000000000000014  0.0000000000000000
  0.2000000000000028  0.6000000000000014  0.2000000000000028
  0.2000000000000028  0.6000000000000014  0.3999999999999986
  0.2000000000000028  0.6000000000000014  0.6000000000000014
  0.2000000000000028  0.6000000000000014  0.7999999999999972
  0.2000000000000028  0.7999999999999972  0.0000000000000000
  0.2000000000000028  0.7999999999999972  0.2000000000000028
  0.2000000000000028  0.7999999999999972  0.3999999999999986
  0.2000000000000028  0.7999999999999972  0.6000000000000014
  0.2000000000000028  0.7999999999999972  0.7999999999999972
  0.3999999999999986  0.0000000000000000  0.0000000000000000
  0.3999999999999986  0.0000000000000000  0.2000000000000028
  0.3999999999999986  0.0000000000000000  0.3999999999999986
  0.3999999999999986  0.0000000000000000  0.6000000000000014
  0.3999999999999986  0.0000000000000000  0.7999999999999972
  0.3999999999999986  0.2000000000000028  0.0000000000000000
  0.3999999999999986  0.2000000000000028  0.2000000000000028
  0.3999999999999986  0.2000000000000028  0.3999999999999986
  0.3999999999999986  0.2000000000000028  0.6000000000000014
  0.3999999999999986  0.2000000000000028  0.7999999999999972
  0.3999999999999986  0.3999999999999986  0.0000000000000000
  0.3999999999999986  0.3999999999999986  0.2000000000000028
  0.3999999999999986  0.3999999999999986  0.3999999999999986
  0.3999999999999986  0.3999999999999986  0.6000000000000014
  0.3999999999999986  0.3999999999999986  0.7999999999999972
  0.3999999999999986  0.6000000000000014  0.0000000000000000
  0.3999999999999986  0.6000000000000014  0.2000000000000028
  0.3999999999999986  0.6000000000000014  0.3999999999999986
  0.3999999999999986  0.6000000000000014  0.6000000000000014
  0.3999999999999986  0.6000000000000014  0.7999999999999972
  0.3999999999999986  0.7999999999999972  0.0000000000000000
  0.3999999999999986  0.7999999999999972  0.2000000000000028
  0.3999999999999986  0.7999999999999972  0.3999999999999986
  0.3999999999999986  0.7999999999999972  0.6000000000000014
  0.3999999999999986  0.7999999999999972  0.7999999999999972
  0.6000000000000014  0.0000000000000000  0.0000000000000000
  0.6000000000000014  0.0000000000000000  0.2000000000000028
  0.6000000000000014  0.0000000000000000  0.3999999999999986
  0.6000000000000014  0.0000000000000000  0.6000000000000014
  0.6000000000000014  0.0000000000000000  0.7999999999999972
  0.6000000000000014  0.2000000000000028  0.0000000000000000
  0.6000000000000014  0.2000000000000028  0.2000000000000028
  0.6000000000000014  0.2000000000000028  0.3999999999999986
  0.6000000000000014  0.2000000000000028  0.6000000000000014
  0.6000000000000014  0.2000000000000028  0.7999999999999972
  0.6000000000000014  0.3999999999999986  0.0000000000000000
  0.6000000000000014  0.3999999999999986  0.2000000000000028
  0.6000000000000014  0.3999999999999986  0.3999999999999986
  0.6000000000000014  0.3999999999999986  0.6000000000000014
  0.6000000000000014  0.3999999999999986  0.7999999999999972
  0.6000000000000014  0.6000000000000014  0.0000000000000000
  0.6000000000000014  0.6000000000000014  0.2000000000000028
  0.6000000000000014  0.6000000000000014  0.3999999999999986
  0.6000000000000014  0.6000000000000014  0.6000000000000014
  0.6000000000000014  0.6000000000000014  0.7999999999999972
  0.6000000000000014  0.7999999999999972  0.0000000000000000
  0.6000000000000014  0.7999999999999972  0.2000000000000028
  0.6000000000000014  0.7999999999999972  0.3999999999999986
  0.6000000000000014  0.7999999999999972  0.6000000000000014
  0.6000000000000014  0.7999999999999972  0.7999999999999972
  0.7999999999999972  0.0000000000000000  0.0000000000000000
  0.7999999999999972  0.0000000000000000  0.2000000000000028
  0.7999999999999972  0.0000000000000000  0.3999999999999986
  0.7999999999999972  0.0000000000000000  0.6000000000000014
  0.7999999999999972  0.0000000000000000  0.7999999999999972
  0.7999999999999972  0.2000000000000028  0.0000000000000000
  0.7999999999999972  0.2000000000000028  0.2000000000000028
  0.7999999999999972  0.2000000000000028  0.3999999999999986
  0.7999999999999972  0.2000000000000028  0.6000000000000014
  0.7999999999999972  0.2000000000000028  0.7999999999999972
  0.7999999999999972  0.3999999999999986  0.0000000000000000
  0.7999999999999972  0.3999999999999986  0.2000000000000028
  0.7999999999999972  0.3999999999999986  0.3999999999999986
  0.7999999999999972  0.3999999999999986  0.6000000000000014
  0.7999999999999972  0.3999999999999986  0.7999999999999972
  0.7999999999999972  0.6000000000000014  0.0000000000000000
  0.7999999999999972  0.6000000000000014  0.2000000000000028
  0.7999999999999972  0.6000000000000014  0.3999999999999986
  0.7999999999999972  0.6000000000000014  0.6000000000000014
  0.7999999999999972  0.6000000000000014  0.7999999999999972
  0.7999999999999972  0.7999999999999972  0.0000000000000000
  0.7999999999999972  0.7999999999999972  0.2000000000000028
  0.7999999999999972  0.7999999999999972  0.3999999999999986
  0.7999999999999972  0.7999999999999972  0.6000000000000014
  0.7999999999999972  0.7999999999999972  0.7999999999999972
  0.1000000000000014  0.1000000000000014  0.1000000000000014
  0.1000000000000014  0.1000000000000014  0.2999999999999972
  0.1000000000000014  0.1000000000000014  0.5000000000000000
  0.1000000000000014  0.1000000000000014  0.7000000000000028
  0.1000000000000014  0.1000000000000014  0.8999999999999986
  0.1000000000000014  0.2999999999999972  0.1000000000000014
  0.1000000000000014  0.2999999999999972  0.2999999999999972
  0.1000000000000014  0.2999999999999972  0.5000000000000000
  0.1000000000000014  0.2999999999999972  0.7000000000000028
  0.1000000000000014  0.2999999999999972  0.8999999999999986
  0.1000000000000014  0.5000000000000000  0.1000000000000014
  0.1000000000000014  0.5000000000000000  0.2999999999999972
  0.1000000000000014  0.5000000000000000  0.5000000000000000
  0.1000000000000014  0.5000000000000000  0.7000000000000028
  0.1000000000000014  0.5000000000000000  0.8999999999999986
  0.1000000000000014  0.7000000000000028  0.1000000000000014
  0.1000000000000014  0.7000000000000028  0.2999999999999972
  0.1000000000000014  0.7000000000000028  0.5000000000000000
  0.1000000000000014  0.7000000000000028  0.7000000000000028
  0.1000000000000014  0.7000000000000028  0.8999999999999986
  0.1000000000000014  0.8999999999999986  0.1000000000000014
  0.1000000000000014  0.8999999999999986  0.2999999999999972
  0.1000000000000014  0.8999999999999986  0.5000000000000000
  0.1000000000000014  0.8999999999999986  0.7000000000000028
  0.1000000000000014  0.8999999999999986  0.8999999999999986
  0.2999999999999972  0.1000000000000014  0.1000000000000014
  0.2999999999999972  0.1000000000000014  0.2999999999999972
  0.2999999999999972  0.1000000000000014  0.5000000000000000
  0.2999999999999972  0.1000000000000014  0.7000000000000028
  0.2999999999999972  0.1000000000000014  0.8999999999999986
  0.2999999999999972  0.2999999999999972  0.1000000000000014
  0.2999999999999972  0.2999999999999972  0.2999999999999972
  0.2999999999999972  0.2999999999999972  0.5000000000000000
  0.2999999999999972  0.2999999999999972  0.7000000000000028
  0.2999999999999972  0.2999999999999972  0.8999999999999986
  0.2999999999999972  0.5000000000000000  0.1000000000000014
  0.2999999999999972  0.5000000000000000  0.2999999999999972
  0.2999999999999972  0.5000000000000000  0.5000000000000000
  0.2999999999999972  0.5000000000000000  0.7000000000000028
  0.2999999999999972  0.5000000000000000  0.8999999999999986
  0.2999999999999972  0.7000000000000028  0.1000000000000014
  0.2999999999999972  0.7000000000000028  0.2999999999999972
  0.2999999999999972  0.7000000000000028  0.5000000000000000
  0.2999999999999972  0.7000000000000028  0.7000000000000028
  0.2999999999999972  0.7000000000000028  0.8999999999999986
  0.2999999999999972  0.8999999999999986  0.1000000000000014
  0.2999999999999972  0.8999999999999986  0.2999999999999972
  0.2999999999999972  0.8999999999999986  0.5000000000000000
  0.2999999999999972  0.8999999999999986  0.7000000000000028
  0.2999999999999972  0.8999999999999986  0.8999999999999986
  0.5000000000000000  0.1000000000000014  0.1000000000000014
  0.5000000000000000  0.1000000000000014  0.2999999999999972
  0.5000000000000000  0.1000000000000014  0.5000000000000000
  0.5000000000000000  0.1000000000000014  0.7000000000000028
  0.5000000000000000  0.1000000000000014  0.8999999999999986
  0.5000000000000000  0.2999999999999972  0.1000000000000014
  0.5000000000000000  0.2999999999999972  0.2999999999999972
  0.5000000000000000  0.2999999999999972  0.5000000000000000
  0.5000000000000000  0.2999999999999972  0.7000000000000028
  0.5000000000000000  0.2999999999999972  0.8999999999999986
  0.5000000000000000  0.5000000000000000  0.1000000000000014
  0.5000000000000000  0.5000000000000000  0.2999999999999972
  0.5000000000000000  0.5000000000000000  0.5000000000000000
  0.5000000000000000  0.5000000000000000  0.7000000000000028
  0.5000000000000000  0.5000000000000000  0.8999999999999986
  0.5000000000000000  0.7000000000000028  0.1000000000000014
  0.5000000000000000  0.7000000000000028  0.2999999999999972
  0.5000000000000000  0.7000000000000028  0.5000000000000000
  0.5000000000000000  0.7000000000000028  0.7000000000000028
  0.5000000000000000  0.7000000000000028  0.8999999999999986
  0.5000000000000000  0.8999999999999986  0.1000000000000014
  0.5000000000000000  0.8999999999999986  0.2999999999999972
  0.5000000000000000  0.8999999999999986  0.5000000000000000
  0.5000000000000000  0.8999999999999986  0.7000000000000028
  0.5000000000000000  0.8999999999999986  0.8999999999999986
  0.7000000000000028  0.1000000000000014  0.1000000000000014
  0.7000000000000028  0.1000000000000014  0.2999999999999972
  0.7000000000000028  0.1000000000000014  0.5000000000000000
  0.7000000000000028  0.1000000000000014  0.7000000000000028
  0.7000000000000028  0.1000000000000014  0.8999999999999986
  0.7000000000000028  0.2999999999999972  0.1000000000000014
  0.7000000000000028  0.2999999999999972  0.2999999999999972
  0.7000000000000028  0.2999999999999972  0.5000000000000000
  0.7000000000000028  0.2999999999999972  0.7000000000000028
  0.7000000000000028  0.2999999999999972  0.8999999999999986
  0.7000000000000028  0.5000000000000000  0.1000000000000014
  0.7000000000000028  0.5000000000000000  0.2999999999999972
  0.7000000000000028  0.5000000000000000  0.5000000000000000
  0.7000000000000028  0.5000000000000000  0.7000000000000028
  0.7000000000000028  0.5000000000000000  0.8999999999999986
  0.7000000000000028  0.7000000000000028  0.1000000000000014
  0.7000000000000028  0.7000000000000028  0.2999999999999972
  0.7000000000000028  0.7000000000000028  0.5000000000000000
  0.7000000000000028  0.7000000000000028  0.7000000000000028
  0.7000000000000028  0.7000000000000028  0.8999999999999986
  0.7000000000000028  0.8999999999999986  0.1000000000000014
  0.7000000000000028  0.8999999999999986  0.2999999999999972
  0.7000000000000028  0.8999999999999986  0.5000000000000000
  0.7000000000000028  0.8999999999999986  0.7000000000000028
  0.7000000000000028  0.8999999999999986  0.8999999999999986
  0.8999999999999986  0.1000000000000014  0.1000000000000014
  0.8999999999999986  0.1000000000000014  0.2999999999999972
  0.8999999999999986  0.1000000000000014  0.5000000000000000
  0.8999999999999986  0.1000000000000014  0.7000000000000028
  0.8999999999999986  0.1000000000000014  0.8999999999999986
  0.8999999999999986  0.2999999999999972  0.1000000000000014
  0.8999999999999986  0.2999999999999972  0.2999999999999972
  0.8999999999999986  0.2999999999999972  0.5000000000000000
  0.8999999999999986  0.2999999999999972  0.7000000000000028
  0.8999999999999986  0.2999999999999972  0.8999999999999986
  0.8999999999999986  0.5000000000000000  0.1000000000000014
  0.8999999999999986  0.5000000000000000  0.2999999999999972
  0.8999999999999986  0.5000000000000000  0.5000000000000000
  0.8999999999999986  0.5000000000000000  0.7000000000000028
  0.8999999999999986  0.5000000000000000  0.8999999999999986
  0.8999999999999986  0.7000000000000028  0.1000000000000014
  0.8999999999999986  0.7000000000000028  0.2999999999999972
  0.8999999999999986  0.7000000000000028  0.5000000000000000
  0.8999999999999986  0.7000000000000028  0.7000000000000028
  0.8999999999999986  0.7000000000000028  0.8999999999999986
  0.8999999999999986  0.8999999999999986  0.1000000000000014
  0.8999999999999986  0.8999999999999986  0.2999999999999972
  0.8999999999999986  0.8999999999999986  0.5000000000000000
  0.8999999999999986  0.8999999999999986  0.7000000000000028
  0.8999999999999986  0.8999999999999986  0.8999999999999986
 
  0.00000000E+00  0.00000000E+00  0.00000000E+00
  0.00000000E+00  0.00000000E+00  0.00000000E+00
  0.00000000E+00  0.00000000E+00  0.00000000E+00
  0.00000000E+00  0.00000000E+00  0.00000000E+00
  0.00000000E+00  0.00000000E+00  0.00000000E+00
  0.00000000E+00  0.00000000E+00  0.00000000E+00
  0.00000000E+00  0.00000000E+00  0.00000000E+00
  0.00000000E+00  0.00000000E+00  0.00000000E+00
  0.00000000E+00  0.00000000E+00  0.00000000E+00
  0.00000000E+00  0.00000000E+00  0.00000000E+00
  0.00000000E+00  0.00000000E+00  0.00000000E+00
  0.00000000E+00  0.00000000E+00  0.00000000E+00
  0.00000000E+00  0.00000000E+00  0.00000000E+00
  0.00000000E+00  0.00000000E+00  0.00000000E+00
  0.00000000E+00  0.00000000E+00  0.00000000E+00
  0.00000000E+00  0.00000000E+00  0.00000000E+00
  0.00000000E+00  0.00000000E+00  0.00000000E+00
  0.00000000E+00  0.00000000E+00  0.00000000E+00
  0.00000000E+00  0.00000000E+00  0.00000000E+00
  0.00000000E+00  0.00000000E+00  0.00000000E+00
  0.00000000E+00  0.00000000E+00  0.00000000E+00
  0.00000000E+00  0.00000000E+00  0.00000000E+00
  0.00000000E+00  0.00000000E+00  0.00000000E+00
  0.00000000E+00  0.00000000E+00  0.00000000E+00
  0.00000000E+00  0.00000000E+00  0.00000000E+00
  0.00000000E+00  0.00000000E+00  0.00000000E+00
  0.00000000E+00  0.00000000E+00  0.00000000E+00
  0.00000000E+00  0.00000000E+00  0.00000000E+00
  0.00000000E+00  0.00000000E+00  0.00000000E+00
  0.00000000E+00  0.00000000E+00  0.00000000E+00
  0.00000000E+00  0.00000000E+00  0.00000000E+00
  0.00000000E+00  0.00000000E+00  0.00000000E+00
  0.00000000E+00  0.00000000E+00  0.00000000E+00
  0.00000000E+00  0.00000000E+00  0.00000000E+00
  0.00000000E+00  0.00000000E+00  0.00000000E+00
  0.00000000E+00  0.00000000E+00  0.00000000E+00
  0.00000000E+00  0.00000000E+00  0.00000000E+00
  0.00000000E+00  0.00000000E+00  0.00000000E+00
  0.00000000E+00  0.00000000E+00  0.00000000E+00
  0.00000000E+00  0.00000000E+00  0.00000000E+00
  0.00000000E+00  0.00000000E+00  0.00000000E+00
  0.00000000E+00  0.00000000E+00  0.00000000E+00
  0.00000000E+00  0.00000000E+00  0.00000000E+00
  0.00000000E+00  0.00000000E+00  0.00000000E+00
  0.00000000E+00  0.00000000E+00  0.00000000E+00
  0.00000000E+00  0.00000000E+00  0.00000000E+00
  0.00000000E+00  0.00000000E+00  0.00000000E+00
  0.00000000E+00  0.00000000E+00  0.00000000E+00
  0.00000000E+00  0.00000000E+00  0.00000000E+00
  0.00000000E+00  0.00000000E+00  0.00000000E+00
  0.00000000E+00  0.00000000E+00  0.00000000E+00
  0.00000000E+00  0.00000000E+00  0.00000000E+00
  0.00000000E+00  0.00000000E+00  0.00000000E+00
  0.00000000E+00  0.00000000E+00  0.00000000E+00
  0.00000000E+00  0.00000000E+00  0.00000000E+00
  0.00000000E+00  0.00000000E+00  0.00000000E+00
  0.00000000E+00  0.00000000E+00  0.00000000E+00
  0.00000000E+00  0.00000000E+00  0.00000000E+00
  0.00000000E+00  0.00000000E+00  0.00000000E+00
  0.00000000E+00  0.00000000E+00  0.00000000E+00
  0.00000000E+00  0.00000000E+00  0.00000000E+00
  0.00000000E+00  0.00000000E+00  0.00000000E+00
  0.00000000E+00  0.00000000E+00  0.00000000E+00
  0.00000000E+00  0.00000000E+00  0.00000000E+00
  0.00000000E+00  0.00000000E+00  0.00000000E+00
  0.00000000E+00  0.00000000E+00  0.00000000E+00
  0.00000000E+00  0.00000000E+00  0.00000000E+00
  0.00000000E+00  0.00000000E+00  0.00000000E+00
  0.00000000E+00  0.00000000E+00  0.00000000E+00
  0.00000000E+00  0.00000000E+00  0.00000000E+00
  0.00000000E+00  0.00000000E+00  0.00000000E+00
  0.00000000E+00  0.00000000E+00  0.00000000E+00
  0.00000000E+00  0.00000000E+00  0.00000000E+00
  0.00000000E+00  0.00000000E+00  0.00000000E+00
  0.00000000E+00  0.00000000E+00  0.00000000E+00
  0.00000000E+00  0.00000000E+00  0.00000000E+00
  0.00000000E+00  0.00000000E+00  0.00000000E+00
  0.00000000E+00  0.00000000E+00  0.00000000E+00
  0.00000000E+00  0.00000000E+00  0.00000000E+00
  0.00000000E+00  0.00000000E+00  0.00000000E+00
  0.00000000E+00  0.00000000E+00  0.00000000E+00
  0.00000000E+00  0.00000000E+00  0.00000000E+00
  0.00000000E+00  0.00000000E+00  0.00000000E+00
  0.00000000E+00  0.00000000E+00  0.00000000E+00
  0.00000000E+00  0.00000000E+00  0.00000000E+00
  0.00000000E+00  0.00000000E+00  0.00000000E+00
  0.00000000E+00  0.00000000E+00  0.00000000E+00
  0.00000000E+00  0.00000000E+00  0.00000000E+00
  0.00000000E+00  0.00000000E+00  0.00000000E+00
  0.00000000E+00  0.00000000E+00  0.00000000E+00
  0.00000000E+00  0.00000000E+00  0.00000000E+00
  0.00000000E+00  0.00000000E+00  0.00000000E+00
  0.00000000E+00  0.00000000E+00  0.00000000E+00
  0.00000000E+00  0.00000000E+00  0.00000000E+00
  0.00000000E+00  0.00000000E+00  0.00000000E+00
  0.00000000E+00  0.00000000E+00  0.00000000E+00
  0.00000000E+00  0.00000000E+00  0.00000000E+00
  0.00000000E+00  0.00000000E+00  0.00000000E+00
  0.00000000E+00  0.00000000E+00  0.00000000E+00
  0.00000000E+00  0.00000000E+00  0.00000000E+00
  0.00000000E+00  0.00000000E+00  0.00000000E+00
  0.00000000E+00  0.00000000E+00  0.00000000E+00
  0.00000000E+00  0.00000000E+00  0.00000000E+00
  0.00000000E+00  0.00000000E+00  0.00000000E+00
  0.00000000E+00  0.00000000E+00  0.00000000E+00
  0.00000000E+00  0.00000000E+00  0.00000000E+00
  0.00000000E+00  0.00000000E+00  0.00000000E+00
  0.00000000E+00  0.00000000E+00  0.00000000E+00
  0.00000000E+00  0.00000000E+00  0.00000000E+00
  0.00000000E+00  0.00000000E+00  0.00000000E+00
  0.00000000E+00  0.00000000E+00  0.00000000E+00
  0.00000000E+00  0.00000000E+00  0.00000000E+00
  0.00000000E+00  0.00000000E+00  0.00000000E+00
  0.00000000E+00  0.00000000E+00  0.00000000E+00
  0.00000000E+00  0.00000000E+00  0.00000000E+00
  0.00000000E+00  0.00000000E+00  0.00000000E+00
  0.00000000E+00  0.00000000E+00  0.00000000E+00
  0.00000000E+00  0.00000000E+00  0.00000000E+00
  0.00000000E+00  0.00000000E+00  0.00000000E+00
  0.00000000E+00  0.00000000E+00  0.00000000E+00
  0.00000000E+00  0.00000000E+00  0.00000000E+00
  0.00000000E+00  0.00000000E+00  0.00000000E+00
  0.00000000E+00  0.00000000E+00  0.00000000E+00
  0.00000000E+00  0.00000000E+00  0.00000000E+00
  0.00000000E+00  0.00000000E+00  0.00000000E+00
  0.00000000E+00  0.00000000E+00  0.00000000E+00
  0.00000000E+00  0.00000000E+00  0.00000000E+00
  0.00000000E+00  0.00000000E+00  0.00000000E+00
  0.00000000E+00  0.00000000E+00  0.00000000E+00
  0.00000000E+00  0.00000000E+00  0.00000000E+00
  0.00000000E+00  0.00000000E+00  0.00000000E+00
  0.00000000E+00  0.00000000E+00  0.00000000E+00
  0.00000000E+00  0.00000000E+00  0.00000000E+00
  0.00000000E+00  0.00000000E+00  0.00000000E+00
  0.00000000E+00  0.00000000E+00  0.00000000E+00
  0.00000000E+00  0.00000000E+00  0.00000000E+00
  0.00000000E+00  0.00000000E+00  0.00000000E+00
  0.00000000E+00  0.00000000E+00  0.00000000E+00
  0.00000000E+00  0.00000000E+00  0.00000000E+00
  0.00000000E+00  0.00000000E+00  0.00000000E+00
  0.00000000E+00  0.00000000E+00  0.00000000E+00
  0.00000000E+00  0.00000000E+00  0.00000000E+00
  0.00000000E+00  0.00000000E+00  0.00000000E+00
  0.00000000E+00  0.00000000E+00  0.00000000E+00
  0.00000000E+00  0.00000000E+00  0.00000000E+00
  0.00000000E+00  0.00000000E+00  0.00000000E+00
  0.00000000E+00  0.00000000E+00  0.00000000E+00
  0.00000000E+00  0.00000000E+00  0.00000000E+00
  0.00000000E+00  0.00000000E+00  0.00000000E+00
  0.00000000E+00  0.00000000E+00  0.00000000E+00
  0.00000000E+00  0.00000000E+00  0.00000000E+00
  0.00000000E+00  0.00000000E+00  0.00000000E+00
  0.00000000E+00  0.00000000E+00  0.00000000E+00
  0.00000000E+00  0.00000000E+00  0.00000000E+00
  0.00000000E+00  0.00000000E+00  0.00000000E+00
  0.00000000E+00  0.00000000E+00  0.00000000E+00
  0.00000000E+00  0.00000000E+00  0.00000000E+00
  0.00000000E+00  0.00000000E+00  0.00000000E+00
  0.00000000E+00  0.00000000E+00  0.00000000E+00
  0.00000000E+00  0.00000000E+00  0.00000000E+00
  0.00000000E+00  0.00000000E+00  0.00000000E+00
  0.00000000E+00  0.00000000E+00  0.00000000E+00
  0.00000000E+00  0.00000000E+00  0.00000000E+00
  0.00000000E+00  0.00000000E+00  0.00000000E+00
  0.00000000E+00  0.00000000E+00  0.00000000E+00
  0.00000000E+00  0.00000000E+00  0.00000000E+00
  0.00000000E+00  0.00000000E+00  0.00000000E+00
  0.00000000E+00  0.00000000E+00  0.00000000E+00
  0.00000000E+00  0.00000000E+00  0.00000000E+00
  0.00000000E+00  0.00000000E+00  0.00000000E+00
  0.00000000E+00  0.00000000E+00  0.00000000E+00
  0.00000000E+00  0.00000000E+00  0.00000000E+00
  0.00000000E+00  0.00000000E+00  0.00000000E+00
  0.00000000E+00  0.00000000E+00  0.00000000E+00
  0.00000000E+00  0.00000000E+00  0.00000000E+00
  0.00000000E+00  0.00000000E+00  0.00000000E+00
  0.00000000E+00  0.00000000E+00  0.00000000E+00
  0.00000000E+00  0.00000000E+00  0.00000000E+00
  0.00000000E+00  0.00000000E+00  0.00000000E+00
  0.00000000E+00  0.00000000E+00  0.00000000E+00
  0.00000000E+00  0.00000000E+00  0.00000000E+00
  0.00000000E+00  0.00000000E+00  0.00000000E+00
  0.00000000E+00  0.00000000E+00  0.00000000E+00
  0.00000000E+00  0.00000000E+00  0.00000000E+00
  0.00000000E+00  0.00000000E+00  0.00000000E+00
  0.00000000E+00  0.00000000E+00  0.00000000E+00
  0.00000000E+00  0.00000000E+00  0.00000000E+00
  0.00000000E+00  0.00000000E+00  0.00000000E+00
  0.00000000E+00  0.00000000E+00  0.00000000E+00
  0.00000000E+00  0.00000000E+00  0.00000000E+00
  0.00000000E+00  0.00000000E+00  0.00000000E+00
  0.00000000E+00  0.00000000E+00  0.00000000E+00
  0.00000000E+00  0.00000000E+00  0.00000000E+00
  0.00000000E+00  0.00000000E+00  0.00000000E+00
  0.00000000E+00  0.00000000E+00  0.00000000E+00
  0.00000000E+00  0.00000000E+00  0.00000000E+00
  0.00000000E+00  0.00000000E+00  0.00000000E+00
  0.00000000E+00  0.00000000E+00  0.00000000E+00
  0.00000000E+00  0.00000000E+00  0.00000000E+00
  0.00000000E+00  0.00000000E+00  0.00000000E+00
  0.00000000E+00  0.00000000E+00  0.00000000E+00
  0.00000000E+00  0.00000000E+00  0.00000000E+00
  0.00000000E+00  0.00000000E+00  0.00000000E+00
  0.00000000E+00  0.00000000E+00  0.00000000E+00
  0.00000000E+00  0.00000000E+00  0.00000000E+00
  0.00000000E+00  0.00000000E+00  0.00000000E+00
  0.00000000E+00  0.00000000E+00  0.00000000E+00
  0.00000000E+00  0.00000000E+00  0.00000000E+00
  0.00000000E+00  0.00000000E+00  0.00000000E+00
  0.00000000E+00  0.00000000E+00  0.00000000E+00
  0.00000000E+00  0.00000000E+00  0.00000000E+00
  0.00000000E+00  0.00000000E+00  0.00000000E+00
  0.00000000E+00  0.00000000E+00  0.00000000E+00
  0.00000000E+00  0.00000000E+00  0.00000000E+00
  0.00000000E+00  0.00000000E+00  0.00000000E+00
  0.00000000E+00  0.00000000E+00  0.00000000E+00
  0.00000000E+00  0.00000000E+00  0.00000000E+00
  0.00000000E+00  0.00000000E+00  0.00000000E+00
  0.00000000E+00  0.00000000E+00  0.00000000E+00
  0.00000000E+00  0.00000000E+00  0.00000000E+00
  0.00000000E+00  0.00000000E+00  0.00000000E+00
  0.00000000E+00  0.00000000E+00  0.00000000E+00
  0.00000000E+00  0.00000000E+00  0.00000000E+00
  0.00000000E+00  0.00000000E+00  0.00000000E+00
  0.00000000E+00  0.00000000E+00  0.00000000E+00
  0.00000000E+00  0.00000000E+00  0.00000000E+00
  0.00000000E+00  0.00000000E+00  0.00000000E+00
  0.00000000E+00  0.00000000E+00  0.00000000E+00
  0.00000000E+00  0.00000000E+00  0.00000000E+00
  0.00000000E+00  0.00000000E+00  0.00000000E+00
  0.00000000E+00  0.00000000E+00  0.00000000E+00
  0.00000000E+00  0.00000000E+00  0.00000000E+00
  0.00000000E+00  0.00000000E+00  0.00000000E+00
  0.00000000E+00  0.00000000E+00  0.00000000E+00
  0.00000000E+00  0.00000000E+00  0.00000000E+00
  0.00000000E+00  0.00000000E+00  0.00000000E+00
  0.00000000E+00  0.00000000E+00  0.00000000E+00
  0.00000000E+00  0.00000000E+00  0.00000000E+00
  0.00000000E+00  0.00000000E+00  0.00000000E+00
  0.00000000E+00  0.00000000E+00  0.00000000E+00
  0.00000000E+00  0.00000000E+00  0.00000000E+00
  0.00000000E+00  0.00000000E+00  0.00000000E+00
  0.00000000E+00  0.00000000E+00  0.00000000E+00
  0.00000000E+00  0.00000000E+00  0.00000000E+00
  0.00000000E+00  0.00000000E+00  0.00000000E+00
  0.00000000E+00  0.00000000E+00  0.00000000E+00
  0.00000000E+00  0.00000000E+00  0.00000000E+00
  0.00000000E+00  0.00000000E+00  0.00000000E+00
  0.00000000E+00  0.00000000E+00  0.00000000E+00
  0.00000000E+00  0.00000000E+00  0.00000000E+00
