 O                                      
    1.000000000000000     
    14.5000000000000000    0.0000000000000000    0.0000000000000000
     0.0000000000000000   14.5000000000000000    0.0000000000000000
     0.0000000000000000    0.0000000000000000   14.5000000000000000
   O 
     4
Direct
  0.0000000000000000  0.0000000000000000  0.0000000000000000
  0.0832413793103441  0.0000000000000000  0.0000000000000000
  0.0000000000000000  0.0000000000000000  0.1241379310344826
  0.0832413793103441  0.0000000000000000  0.1241379310344826
 
  0.00000000E+00  0.00000000E+00  0.00000000E+00
  0.00000000E+00  0.00000000E+00  0.00000000E+00
  0.00000000E+00  0.00000000E+00  0.00000000E+00
  0.00000000E+00  0.00000000E+00  0.00000000E+00
