 O 
 1.0000000000000000
    14.5000000000000000    0.0000000000000000    0.0000000000000000
     0.0000000000000000   14.5000000000000000    0.0000000000000000
     0.0000000000000000    0.0000000000000000   14.5000000000000000
 O  
   4
Cartesian
  0.0000000000000000  0.0000000000000000  0.0000000000000000
  1.2070000000000001  0.0000000000000000  0.0000000000000000
  0.0000000000000000  0.0000000000000000  1.8000000000000000
  1.2070000000000001  0.0000000000000000  1.8000000000000000
