New structure                           
    1.000000000000000     
    14.2799999999999994    0.0000000000000000    0.0000000000000000
     0.0000000000000000   14.2799999999999994    0.0000000000000000
     0.0000000000000000    0.0000000000000000   14.2799999999999994
   Ni   O 
   256     1
Direct
 -0.0098053644646770 -0.0098053644646770 -0.0098053644646770
 -0.0098053644646770  0.1348053644646771  0.1348053644646771
  0.1348053644646771 -0.0098053644646770  0.1348053644646771
  0.1348053644646771  0.1348053644646771 -0.0098053644646770
 -0.0012699569084697 -0.0012699569084697  0.2527822459426896
 -0.0003981659504587  0.1253981659504587  0.3752159416202915
  0.1253981659504587 -0.0003981659504587  0.3752159416202915
  0.1262699569084698  0.1262699569084698  0.2527822459426896
 -0.0000377432662934 -0.0000377432662934  0.4999807569508873
 -0.0000377432662934  0.1250377432662934  0.6250192430491127
  0.1250377432662934 -0.0000377432662934  0.6250192430491127
  0.1250377432662934  0.1250377432662934  0.4999807569508873
 -0.0003981659504587 -0.0003981659504587  0.7497840583797086
 -0.0012699569084697  0.1262699569084698  0.8722177540573098
  0.1262699569084698 -0.0012699569084697  0.8722177540573098
  0.1253981659504587  0.1253981659504587  0.7497840583797086
 -0.0012699569084697  0.2527822459426896 -0.0012699569084697
 -0.0003981659504587  0.3752159416202915  0.1253981659504587
  0.1262699569084698  0.2527822459426896  0.1262699569084698
  0.1253981659504587  0.3752159416202915 -0.0003981659504587
 -0.0014850404731058  0.2537595413348809  0.2537595413348809
 -0.0002698866272314  0.3764190902803156  0.3764190902803156
  0.1252027308917409  0.2509088763993982  0.3759013246974428
  0.1252027308917409  0.3759013246974428  0.2509088763993982
 -0.0001178396539310  0.2502577650171812  0.5002219527869024
 -0.0001175151961234  0.3754080412141643  0.6247317406792992
  0.1251178396539310  0.2502577650171812  0.6247780472130976
  0.1251175151961234  0.3754080412141643  0.5002682593207011
 -0.0002027308917409  0.2509088763993982  0.7490986753025569
 -0.0002027308917409  0.3759013246974428  0.8740911236006015
  0.1264850404731058  0.2537595413348809  0.8712404586651193
  0.1252698866272313  0.3764190902803156  0.7485809097196845
 -0.0000377432662934  0.4999807569508873 -0.0000377432662934
 -0.0000377432662934  0.6250192430491127  0.1250377432662934
  0.1250377432662934  0.4999807569508873  0.1250377432662934
  0.1250377432662934  0.6250192430491127 -0.0000377432662934
 -0.0001178396539310  0.5002219527869024  0.2502577650171812
 -0.0001175151961234  0.6247317406792992  0.3754080412141643
  0.1251175151961234  0.5002682593207011  0.3754080412141643
  0.1251178396539310  0.6247780472130976  0.2502577650171812
 -0.0001662049863663  0.5003918759289294  0.5003918759289294
 -0.0001662049863663  0.6246081240710706  0.6246081240710706
  0.1251662049863662  0.5003918759289294  0.6246081240710706
  0.1251662049863662  0.6246081240710706  0.5003918759289294
 -0.0001175151961234  0.5002682593207011  0.7495919587858355
 -0.0001178396539310  0.6247780472130976  0.8747422349828189
  0.1251178396539310  0.5002219527869024  0.8747422349828189
  0.1251175151961234  0.6247317406792992  0.7495919587858355
 -0.0003981659504587  0.7497840583797086 -0.0003981659504587
 -0.0012699569084697  0.8722177540573098  0.1262699569084698
  0.1253981659504587  0.7497840583797086  0.1253981659504587
  0.1262699569084698  0.8722177540573098 -0.0012699569084697
 -0.0002027308917409  0.7490986753025569  0.2509088763993982
 -0.0002027308917409  0.8740911236006015  0.3759013246974428
  0.1252698866272313  0.7485809097196845  0.3764190902803156
  0.1264850404731058  0.8712404586651193  0.2537595413348809
 -0.0001175151961234  0.7495919587858355  0.5002682593207011
 -0.0001178396539310  0.8747422349828189  0.6247780472130976
  0.1251175151961234  0.7495919587858355  0.6247317406792992
  0.1251178396539310  0.8747422349828189  0.5002219527869024
 -0.0002698866272314  0.7485809097196845  0.7485809097196845
 -0.0014850404731058  0.8712404586651193  0.8712404586651193
  0.1252027308917409  0.7490986753025569  0.8740911236006015
  0.1252027308917409  0.8740911236006015  0.7490986753025569
  0.2527822459426896 -0.0012699569084697 -0.0012699569084697
  0.2527822459426896  0.1262699569084698  0.1262699569084698
  0.3752159416202915 -0.0003981659504587  0.1253981659504587
  0.3752159416202915  0.1253981659504587 -0.0003981659504587
  0.2537595413348809 -0.0014850404731058  0.2537595413348809
  0.2509088763993982  0.1252027308917409  0.3759013246974428
  0.3764190902803156 -0.0002698866272314  0.3764190902803156
  0.3759013246974428  0.1252027308917409  0.2509088763993982
  0.2502577650171812 -0.0001178396539310  0.5002219527869024
  0.2502577650171812  0.1251178396539310  0.6247780472130976
  0.3754080412141643 -0.0001175151961234  0.6247317406792992
  0.3754080412141643  0.1251175151961234  0.5002682593207011
  0.2509088763993982 -0.0002027308917409  0.7490986753025569
  0.2537595413348809  0.1264850404731058  0.8712404586651193
  0.3759013246974428 -0.0002027308917409  0.8740911236006015
  0.3764190902803156  0.1252698866272313  0.7485809097196845
  0.2537595413348809  0.2537595413348809 -0.0014850404731058
  0.2509088763993982  0.3759013246974428  0.1252027308917409
  0.3759013246974428  0.2509088763993982  0.1252027308917409
  0.3764190902803156  0.3764190902803156 -0.0002698866272314
  0.2506939265904445  0.2506939265904445  0.2506939265904445
  0.2503872419352550  0.3754226357418433  0.3754226357418433
  0.3754226357418433  0.2503872419352550  0.3754226357418433
  0.3754226357418433  0.3754226357418433  0.2503872419352550
  0.2503005803763108  0.2503005803763108  0.5002885857524717
  0.2503962900304916  0.3755529438974008  0.6245114494155931
  0.3755529438974008  0.2503962900304916  0.6245114494155931
  0.3753207567944815  0.3753207567944815  0.5000410926983758
  0.2511714292241114  0.2511714292241114  0.7484954884317279
  0.2511714292241114  0.3765045115682722  0.8738285707758887
  0.3765045115682722  0.2511714292241114  0.8738285707758887
  0.3757847948330402  0.3757847948330402  0.7492152051669599
  0.2502577650171812  0.5002219527869024 -0.0001178396539310
  0.2502577650171812  0.6247780472130976  0.1251178396539310
  0.3754080412141643  0.5002682593207011  0.1251175151961234
  0.3754080412141643  0.6247317406792992 -0.0001175151961234
  0.2503005803763108  0.5002885857524717  0.2503005803763108
  0.2503962900304916  0.6245114494155931  0.3755529438974008
  0.3753207567944815  0.5000410926983758  0.3753207567944815
  0.3755529438974008  0.6245114494155931  0.2503962900304916
  0.2503095283769231  0.5001010717799079  0.5001010717799079
  0.2503095283769231  0.6248989282200921  0.6248989282200921
  0.3753313838958803  0.5002426969548988  0.6247573030451012
  0.3753313838958803  0.6247573030451012  0.5002426969548988
  0.2503962900304916  0.5004885505844069  0.7494470561025995
  0.2503005803763108  0.6247114142475283  0.8746994196236891
  0.3755529438974008  0.5004885505844069  0.8746037099695082
  0.3753207567944815  0.6249589073016242  0.7496792432055188
  0.2509088763993982  0.7490986753025569 -0.0002027308917409
  0.2537595413348809  0.8712404586651193  0.1264850404731058
  0.3764190902803156  0.7485809097196845  0.1252698866272313
  0.3759013246974428  0.8740911236006015 -0.0002027308917409
  0.2511714292241114  0.7484954884317279  0.2511714292241114
  0.2511714292241114  0.8738285707758887  0.3765045115682722
  0.3757847948330402  0.7492152051669599  0.3757847948330402
  0.3765045115682722  0.8738285707758887  0.2511714292241114
  0.2503962900304916  0.7494470561025995  0.5004885505844069
  0.2503005803763108  0.8746994196236891  0.6247114142475283
  0.3753207567944815  0.7496792432055188  0.6249589073016242
  0.3755529438974008  0.8746037099695082  0.5004885505844069
  0.2503872419352550  0.7495773642581567  0.7495773642581567
  0.2506939265904445  0.8743060734095554  0.8743060734095554
  0.3754226357418433  0.7495773642581567  0.8746127580647450
  0.3754226357418433  0.8746127580647450  0.7495773642581567
  0.4999807569508873 -0.0000377432662934 -0.0000377432662934
  0.4999807569508873  0.1250377432662934  0.1250377432662934
  0.6250192430491127 -0.0000377432662934  0.1250377432662934
  0.6250192430491127  0.1250377432662934 -0.0000377432662934
  0.5002219527869024 -0.0001178396539310  0.2502577650171812
  0.5002682593207011  0.1251175151961234  0.3754080412141643
  0.6247317406792992 -0.0001175151961234  0.3754080412141643
  0.6247780472130976  0.1251178396539310  0.2502577650171812
  0.5003918759289294 -0.0001662049863663  0.5003918759289294
  0.5003918759289294  0.1251662049863662  0.6246081240710706
  0.6246081240710706 -0.0001662049863663  0.6246081240710706
  0.6246081240710706  0.1251662049863662  0.5003918759289294
  0.5002682593207011 -0.0001175151961234  0.7495919587858355
  0.5002219527869024  0.1251178396539310  0.8747422349828189
  0.6247780472130976 -0.0001178396539310  0.8747422349828189
  0.6247317406792992  0.1251175151961234  0.7495919587858355
  0.5002219527869024  0.2502577650171812 -0.0001178396539310
  0.5002682593207011  0.3754080412141643  0.1251175151961234
  0.6247780472130976  0.2502577650171812  0.1251178396539310
  0.6247317406792992  0.3754080412141643 -0.0001175151961234
  0.5002885857524717  0.2503005803763108  0.2503005803763108
  0.5000410926983758  0.3753207567944815  0.3753207567944815
  0.6245114494155931  0.2503962900304916  0.3755529438974008
  0.6245114494155931  0.3755529438974008  0.2503962900304916
  0.5001010717799079  0.2503095283769231  0.5001010717799079
  0.5002426969548988  0.3753313838958803  0.6247573030451012
  0.6248989282200921  0.2503095283769231  0.6248989282200921
  0.6247573030451012  0.3753313838958803  0.5002426969548988
  0.5004885505844069  0.2503962900304916  0.7494470561025995
  0.5004885505844069  0.3755529438974008  0.8746037099695082
  0.6247114142475283  0.2503005803763108  0.8746994196236891
  0.6249589073016242  0.3753207567944815  0.7496792432055188
  0.5003918759289294  0.5003918759289294 -0.0001662049863663
  0.5003918759289294  0.6246081240710706  0.1251662049863662
  0.6246081240710706  0.5003918759289294  0.1251662049863662
  0.6246081240710706  0.6246081240710706 -0.0001662049863663
  0.5001010717799079  0.5001010717799079  0.2503095283769231
  0.5002426969548988  0.6247573030451012  0.3753313838958803
  0.6247573030451012  0.5002426969548988  0.3753313838958803
  0.6248989282200921  0.6248989282200921  0.2503095283769231
  0.5001629329473386  0.5001629329473386  0.5001629329473386
  0.5001629329473386  0.6248370670526614  0.6248370670526614
  0.6248370670526614  0.5001629329473386  0.6248370670526614
  0.6248370670526614  0.6248370670526614  0.5001629329473386
  0.5002426969548988  0.5002426969548988  0.7496686161041198
  0.5001010717799079  0.6248989282200921  0.8746904716230770
  0.6248989282200921  0.5001010717799079  0.8746904716230770
  0.6247573030451012  0.6247573030451012  0.7496686161041198
  0.5002682593207011  0.7495919587858355 -0.0001175151961234
  0.5002219527869024  0.8747422349828189  0.1251178396539310
  0.6247317406792992  0.7495919587858355  0.1251175151961234
  0.6247780472130976  0.8747422349828189 -0.0001178396539310
  0.5004885505844069  0.7494470561025995  0.2503962900304916
  0.5004885505844069  0.8746037099695082  0.3755529438974008
  0.6249589073016242  0.7496792432055188  0.3753207567944815
  0.6247114142475283  0.8746994196236891  0.2503005803763108
  0.5002426969548988  0.7496686161041198  0.5002426969548988
  0.5001010717799079  0.8746904716230770  0.6248989282200921
  0.6247573030451012  0.7496686161041198  0.6247573030451012
  0.6248989282200921  0.8746904716230770  0.5001010717799079
  0.5000410926983758  0.7496792432055188  0.7496792432055188
  0.5002885857524717  0.8746994196236891  0.8746994196236891
  0.6245114494155931  0.7494470561025995  0.8746037099695082
  0.6245114494155931  0.8746037099695082  0.7494470561025995
  0.7497840583797086 -0.0003981659504587 -0.0003981659504587
  0.7497840583797086  0.1253981659504587  0.1253981659504587
  0.8722177540573098 -0.0012699569084697  0.1262699569084698
  0.8722177540573098  0.1262699569084698 -0.0012699569084697
  0.7490986753025569 -0.0002027308917409  0.2509088763993982
  0.7485809097196845  0.1252698866272313  0.3764190902803156
  0.8740911236006015 -0.0002027308917409  0.3759013246974428
  0.8712404586651193  0.1264850404731058  0.2537595413348809
  0.7495919587858355 -0.0001175151961234  0.5002682593207011
  0.7495919587858355  0.1251175151961234  0.6247317406792992
  0.8747422349828189 -0.0001178396539310  0.6247780472130976
  0.8747422349828189  0.1251178396539310  0.5002219527869024
  0.7485809097196845 -0.0002698866272314  0.7485809097196845
  0.7490986753025569  0.1252027308917409  0.8740911236006015
  0.8712404586651193 -0.0014850404731058  0.8712404586651193
  0.8740911236006015  0.1252027308917409  0.7490986753025569
  0.7490986753025569  0.2509088763993982 -0.0002027308917409
  0.7485809097196845  0.3764190902803156  0.1252698866272313
  0.8712404586651193  0.2537595413348809  0.1264850404731058
  0.8740911236006015  0.3759013246974428 -0.0002027308917409
  0.7484954884317279  0.2511714292241114  0.2511714292241114
  0.7492152051669599  0.3757847948330402  0.3757847948330402
  0.8738285707758887  0.2511714292241114  0.3765045115682722
  0.8738285707758887  0.3765045115682722  0.2511714292241114
  0.7494470561025995  0.2503962900304916  0.5004885505844069
  0.7496792432055188  0.3753207567944815  0.6249589073016242
  0.8746994196236891  0.2503005803763108  0.6247114142475283
  0.8746037099695082  0.3755529438974008  0.5004885505844069
  0.7495773642581567  0.2503872419352550  0.7495773642581567
  0.7495773642581567  0.3754226357418433  0.8746127580647450
  0.8743060734095554  0.2506939265904445  0.8743060734095554
  0.8746127580647450  0.3754226357418433  0.7495773642581567
  0.7495919587858355  0.5002682593207011 -0.0001175151961234
  0.7495919587858355  0.6247317406792992  0.1251175151961234
  0.8747422349828189  0.5002219527869024  0.1251178396539310
  0.8747422349828189  0.6247780472130976 -0.0001178396539310
  0.7494470561025995  0.5004885505844069  0.2503962900304916
  0.7496792432055188  0.6249589073016242  0.3753207567944815
  0.8746037099695082  0.5004885505844069  0.3755529438974008
  0.8746994196236891  0.6247114142475283  0.2503005803763108
  0.7496686161041198  0.5002426969548988  0.5002426969548988
  0.7496686161041198  0.6247573030451012  0.6247573030451012
  0.8746904716230770  0.5001010717799079  0.6248989282200921
  0.8746904716230770  0.6248989282200921  0.5001010717799079
  0.7496792432055188  0.5000410926983758  0.7496792432055188
  0.7494470561025995  0.6245114494155931  0.8746037099695082
  0.8746994196236891  0.5002885857524717  0.8746994196236891
  0.8746037099695082  0.6245114494155931  0.7494470561025995
  0.7485809097196845  0.7485809097196845 -0.0002698866272314
  0.7490986753025569  0.8740911236006015  0.1252027308917409
  0.8740911236006015  0.7490986753025569  0.1252027308917409
  0.8712404586651193  0.8712404586651193 -0.0014850404731058
  0.7495773642581567  0.7495773642581567  0.2503872419352550
  0.7495773642581567  0.8746127580647450  0.3754226357418433
  0.8746127580647450  0.7495773642581567  0.3754226357418433
  0.8743060734095554  0.8743060734095554  0.2506939265904445
  0.7496792432055188  0.7496792432055188  0.5000410926983758
  0.7494470561025995  0.8746037099695082  0.6245114494155931
  0.8746037099695082  0.7494470561025995  0.6245114494155931
  0.8746994196236891  0.8746994196236891  0.5002885857524717
  0.7492152051669599  0.7492152051669599  0.7492152051669599
  0.7484954884317279  0.8738285707758887  0.8738285707758887
  0.8738285707758887  0.7484954884317279  0.8738285707758887
  0.8738285707758887  0.8738285707758887  0.7484954884317279
  0.0625000000000000  0.0625000000000000  0.0625000000000000
 
  0.00000000E+00  0.00000000E+00  0.00000000E+00
  0.00000000E+00  0.00000000E+00  0.00000000E+00
  0.00000000E+00  0.00000000E+00  0.00000000E+00
  0.00000000E+00  0.00000000E+00  0.00000000E+00
  0.00000000E+00  0.00000000E+00  0.00000000E+00
  0.00000000E+00  0.00000000E+00  0.00000000E+00
  0.00000000E+00  0.00000000E+00  0.00000000E+00
  0.00000000E+00  0.00000000E+00  0.00000000E+00
  0.00000000E+00  0.00000000E+00  0.00000000E+00
  0.00000000E+00  0.00000000E+00  0.00000000E+00
  0.00000000E+00  0.00000000E+00  0.00000000E+00
  0.00000000E+00  0.00000000E+00  0.00000000E+00
  0.00000000E+00  0.00000000E+00  0.00000000E+00
  0.00000000E+00  0.00000000E+00  0.00000000E+00
  0.00000000E+00  0.00000000E+00  0.00000000E+00
  0.00000000E+00  0.00000000E+00  0.00000000E+00
  0.00000000E+00  0.00000000E+00  0.00000000E+00
  0.00000000E+00  0.00000000E+00  0.00000000E+00
  0.00000000E+00  0.00000000E+00  0.00000000E+00
  0.00000000E+00  0.00000000E+00  0.00000000E+00
  0.00000000E+00  0.00000000E+00  0.00000000E+00
  0.00000000E+00  0.00000000E+00  0.00000000E+00
  0.00000000E+00  0.00000000E+00  0.00000000E+00
  0.00000000E+00  0.00000000E+00  0.00000000E+00
  0.00000000E+00  0.00000000E+00  0.00000000E+00
  0.00000000E+00  0.00000000E+00  0.00000000E+00
  0.00000000E+00  0.00000000E+00  0.00000000E+00
  0.00000000E+00  0.00000000E+00  0.00000000E+00
  0.00000000E+00  0.00000000E+00  0.00000000E+00
  0.00000000E+00  0.00000000E+00  0.00000000E+00
  0.00000000E+00  0.00000000E+00  0.00000000E+00
  0.00000000E+00  0.00000000E+00  0.00000000E+00
  0.00000000E+00  0.00000000E+00  0.00000000E+00
  0.00000000E+00  0.00000000E+00  0.00000000E+00
  0.00000000E+00  0.00000000E+00  0.00000000E+00
  0.00000000E+00  0.00000000E+00  0.00000000E+00
  0.00000000E+00  0.00000000E+00  0.00000000E+00
  0.00000000E+00  0.00000000E+00  0.00000000E+00
  0.00000000E+00  0.00000000E+00  0.00000000E+00
  0.00000000E+00  0.00000000E+00  0.00000000E+00
  0.00000000E+00  0.00000000E+00  0.00000000E+00
  0.00000000E+00  0.00000000E+00  0.00000000E+00
  0.00000000E+00  0.00000000E+00  0.00000000E+00
  0.00000000E+00  0.00000000E+00  0.00000000E+00
  0.00000000E+00  0.00000000E+00  0.00000000E+00
  0.00000000E+00  0.00000000E+00  0.00000000E+00
  0.00000000E+00  0.00000000E+00  0.00000000E+00
  0.00000000E+00  0.00000000E+00  0.00000000E+00
  0.00000000E+00  0.00000000E+00  0.00000000E+00
  0.00000000E+00  0.00000000E+00  0.00000000E+00
  0.00000000E+00  0.00000000E+00  0.00000000E+00
  0.00000000E+00  0.00000000E+00  0.00000000E+00
  0.00000000E+00  0.00000000E+00  0.00000000E+00
  0.00000000E+00  0.00000000E+00  0.00000000E+00
  0.00000000E+00  0.00000000E+00  0.00000000E+00
  0.00000000E+00  0.00000000E+00  0.00000000E+00
  0.00000000E+00  0.00000000E+00  0.00000000E+00
  0.00000000E+00  0.00000000E+00  0.00000000E+00
  0.00000000E+00  0.00000000E+00  0.00000000E+00
  0.00000000E+00  0.00000000E+00  0.00000000E+00
  0.00000000E+00  0.00000000E+00  0.00000000E+00
  0.00000000E+00  0.00000000E+00  0.00000000E+00
  0.00000000E+00  0.00000000E+00  0.00000000E+00
  0.00000000E+00  0.00000000E+00  0.00000000E+00
  0.00000000E+00  0.00000000E+00  0.00000000E+00
  0.00000000E+00  0.00000000E+00  0.00000000E+00
  0.00000000E+00  0.00000000E+00  0.00000000E+00
  0.00000000E+00  0.00000000E+00  0.00000000E+00
  0.00000000E+00  0.00000000E+00  0.00000000E+00
  0.00000000E+00  0.00000000E+00  0.00000000E+00
  0.00000000E+00  0.00000000E+00  0.00000000E+00
  0.00000000E+00  0.00000000E+00  0.00000000E+00
  0.00000000E+00  0.00000000E+00  0.00000000E+00
  0.00000000E+00  0.00000000E+00  0.00000000E+00
  0.00000000E+00  0.00000000E+00  0.00000000E+00
  0.00000000E+00  0.00000000E+00  0.00000000E+00
  0.00000000E+00  0.00000000E+00  0.00000000E+00
  0.00000000E+00  0.00000000E+00  0.00000000E+00
  0.00000000E+00  0.00000000E+00  0.00000000E+00
  0.00000000E+00  0.00000000E+00  0.00000000E+00
  0.00000000E+00  0.00000000E+00  0.00000000E+00
  0.00000000E+00  0.00000000E+00  0.00000000E+00
  0.00000000E+00  0.00000000E+00  0.00000000E+00
  0.00000000E+00  0.00000000E+00  0.00000000E+00
  0.00000000E+00  0.00000000E+00  0.00000000E+00
  0.00000000E+00  0.00000000E+00  0.00000000E+00
  0.00000000E+00  0.00000000E+00  0.00000000E+00
  0.00000000E+00  0.00000000E+00  0.00000000E+00
  0.00000000E+00  0.00000000E+00  0.00000000E+00
  0.00000000E+00  0.00000000E+00  0.00000000E+00
  0.00000000E+00  0.00000000E+00  0.00000000E+00
  0.00000000E+00  0.00000000E+00  0.00000000E+00
  0.00000000E+00  0.00000000E+00  0.00000000E+00
  0.00000000E+00  0.00000000E+00  0.00000000E+00
  0.00000000E+00  0.00000000E+00  0.00000000E+00
  0.00000000E+00  0.00000000E+00  0.00000000E+00
  0.00000000E+00  0.00000000E+00  0.00000000E+00
  0.00000000E+00  0.00000000E+00  0.00000000E+00
  0.00000000E+00  0.00000000E+00  0.00000000E+00
  0.00000000E+00  0.00000000E+00  0.00000000E+00
  0.00000000E+00  0.00000000E+00  0.00000000E+00
  0.00000000E+00  0.00000000E+00  0.00000000E+00
  0.00000000E+00  0.00000000E+00  0.00000000E+00
  0.00000000E+00  0.00000000E+00  0.00000000E+00
  0.00000000E+00  0.00000000E+00  0.00000000E+00
  0.00000000E+00  0.00000000E+00  0.00000000E+00
  0.00000000E+00  0.00000000E+00  0.00000000E+00
  0.00000000E+00  0.00000000E+00  0.00000000E+00
  0.00000000E+00  0.00000000E+00  0.00000000E+00
  0.00000000E+00  0.00000000E+00  0.00000000E+00
  0.00000000E+00  0.00000000E+00  0.00000000E+00
  0.00000000E+00  0.00000000E+00  0.00000000E+00
  0.00000000E+00  0.00000000E+00  0.00000000E+00
  0.00000000E+00  0.00000000E+00  0.00000000E+00
  0.00000000E+00  0.00000000E+00  0.00000000E+00
  0.00000000E+00  0.00000000E+00  0.00000000E+00
  0.00000000E+00  0.00000000E+00  0.00000000E+00
  0.00000000E+00  0.00000000E+00  0.00000000E+00
  0.00000000E+00  0.00000000E+00  0.00000000E+00
  0.00000000E+00  0.00000000E+00  0.00000000E+00
  0.00000000E+00  0.00000000E+00  0.00000000E+00
  0.00000000E+00  0.00000000E+00  0.00000000E+00
  0.00000000E+00  0.00000000E+00  0.00000000E+00
  0.00000000E+00  0.00000000E+00  0.00000000E+00
  0.00000000E+00  0.00000000E+00  0.00000000E+00
  0.00000000E+00  0.00000000E+00  0.00000000E+00
  0.00000000E+00  0.00000000E+00  0.00000000E+00
  0.00000000E+00  0.00000000E+00  0.00000000E+00
  0.00000000E+00  0.00000000E+00  0.00000000E+00
  0.00000000E+00  0.00000000E+00  0.00000000E+00
  0.00000000E+00  0.00000000E+00  0.00000000E+00
  0.00000000E+00  0.00000000E+00  0.00000000E+00
  0.00000000E+00  0.00000000E+00  0.00000000E+00
  0.00000000E+00  0.00000000E+00  0.00000000E+00
  0.00000000E+00  0.00000000E+00  0.00000000E+00
  0.00000000E+00  0.00000000E+00  0.00000000E+00
  0.00000000E+00  0.00000000E+00  0.00000000E+00
  0.00000000E+00  0.00000000E+00  0.00000000E+00
  0.00000000E+00  0.00000000E+00  0.00000000E+00
  0.00000000E+00  0.00000000E+00  0.00000000E+00
  0.00000000E+00  0.00000000E+00  0.00000000E+00
  0.00000000E+00  0.00000000E+00  0.00000000E+00
  0.00000000E+00  0.00000000E+00  0.00000000E+00
  0.00000000E+00  0.00000000E+00  0.00000000E+00
  0.00000000E+00  0.00000000E+00  0.00000000E+00
  0.00000000E+00  0.00000000E+00  0.00000000E+00
  0.00000000E+00  0.00000000E+00  0.00000000E+00
  0.00000000E+00  0.00000000E+00  0.00000000E+00
  0.00000000E+00  0.00000000E+00  0.00000000E+00
  0.00000000E+00  0.00000000E+00  0.00000000E+00
  0.00000000E+00  0.00000000E+00  0.00000000E+00
  0.00000000E+00  0.00000000E+00  0.00000000E+00
  0.00000000E+00  0.00000000E+00  0.00000000E+00
  0.00000000E+00  0.00000000E+00  0.00000000E+00
  0.00000000E+00  0.00000000E+00  0.00000000E+00
  0.00000000E+00  0.00000000E+00  0.00000000E+00
  0.00000000E+00  0.00000000E+00  0.00000000E+00
  0.00000000E+00  0.00000000E+00  0.00000000E+00
  0.00000000E+00  0.00000000E+00  0.00000000E+00
  0.00000000E+00  0.00000000E+00  0.00000000E+00
  0.00000000E+00  0.00000000E+00  0.00000000E+00
  0.00000000E+00  0.00000000E+00  0.00000000E+00
  0.00000000E+00  0.00000000E+00  0.00000000E+00
  0.00000000E+00  0.00000000E+00  0.00000000E+00
  0.00000000E+00  0.00000000E+00  0.00000000E+00
  0.00000000E+00  0.00000000E+00  0.00000000E+00
  0.00000000E+00  0.00000000E+00  0.00000000E+00
  0.00000000E+00  0.00000000E+00  0.00000000E+00
  0.00000000E+00  0.00000000E+00  0.00000000E+00
  0.00000000E+00  0.00000000E+00  0.00000000E+00
  0.00000000E+00  0.00000000E+00  0.00000000E+00
  0.00000000E+00  0.00000000E+00  0.00000000E+00
  0.00000000E+00  0.00000000E+00  0.00000000E+00
  0.00000000E+00  0.00000000E+00  0.00000000E+00
  0.00000000E+00  0.00000000E+00  0.00000000E+00
  0.00000000E+00  0.00000000E+00  0.00000000E+00
  0.00000000E+00  0.00000000E+00  0.00000000E+00
  0.00000000E+00  0.00000000E+00  0.00000000E+00
  0.00000000E+00  0.00000000E+00  0.00000000E+00
  0.00000000E+00  0.00000000E+00  0.00000000E+00
  0.00000000E+00  0.00000000E+00  0.00000000E+00
  0.00000000E+00  0.00000000E+00  0.00000000E+00
  0.00000000E+00  0.00000000E+00  0.00000000E+00
  0.00000000E+00  0.00000000E+00  0.00000000E+00
  0.00000000E+00  0.00000000E+00  0.00000000E+00
  0.00000000E+00  0.00000000E+00  0.00000000E+00
  0.00000000E+00  0.00000000E+00  0.00000000E+00
  0.00000000E+00  0.00000000E+00  0.00000000E+00
  0.00000000E+00  0.00000000E+00  0.00000000E+00
  0.00000000E+00  0.00000000E+00  0.00000000E+00
  0.00000000E+00  0.00000000E+00  0.00000000E+00
  0.00000000E+00  0.00000000E+00  0.00000000E+00
  0.00000000E+00  0.00000000E+00  0.00000000E+00
  0.00000000E+00  0.00000000E+00  0.00000000E+00
  0.00000000E+00  0.00000000E+00  0.00000000E+00
  0.00000000E+00  0.00000000E+00  0.00000000E+00
  0.00000000E+00  0.00000000E+00  0.00000000E+00
  0.00000000E+00  0.00000000E+00  0.00000000E+00
  0.00000000E+00  0.00000000E+00  0.00000000E+00
  0.00000000E+00  0.00000000E+00  0.00000000E+00
  0.00000000E+00  0.00000000E+00  0.00000000E+00
  0.00000000E+00  0.00000000E+00  0.00000000E+00
  0.00000000E+00  0.00000000E+00  0.00000000E+00
  0.00000000E+00  0.00000000E+00  0.00000000E+00
  0.00000000E+00  0.00000000E+00  0.00000000E+00
  0.00000000E+00  0.00000000E+00  0.00000000E+00
  0.00000000E+00  0.00000000E+00  0.00000000E+00
  0.00000000E+00  0.00000000E+00  0.00000000E+00
  0.00000000E+00  0.00000000E+00  0.00000000E+00
  0.00000000E+00  0.00000000E+00  0.00000000E+00
  0.00000000E+00  0.00000000E+00  0.00000000E+00
  0.00000000E+00  0.00000000E+00  0.00000000E+00
  0.00000000E+00  0.00000000E+00  0.00000000E+00
  0.00000000E+00  0.00000000E+00  0.00000000E+00
  0.00000000E+00  0.00000000E+00  0.00000000E+00
  0.00000000E+00  0.00000000E+00  0.00000000E+00
  0.00000000E+00  0.00000000E+00  0.00000000E+00
  0.00000000E+00  0.00000000E+00  0.00000000E+00
  0.00000000E+00  0.00000000E+00  0.00000000E+00
  0.00000000E+00  0.00000000E+00  0.00000000E+00
  0.00000000E+00  0.00000000E+00  0.00000000E+00
  0.00000000E+00  0.00000000E+00  0.00000000E+00
  0.00000000E+00  0.00000000E+00  0.00000000E+00
  0.00000000E+00  0.00000000E+00  0.00000000E+00
  0.00000000E+00  0.00000000E+00  0.00000000E+00
  0.00000000E+00  0.00000000E+00  0.00000000E+00
  0.00000000E+00  0.00000000E+00  0.00000000E+00
  0.00000000E+00  0.00000000E+00  0.00000000E+00
  0.00000000E+00  0.00000000E+00  0.00000000E+00
  0.00000000E+00  0.00000000E+00  0.00000000E+00
  0.00000000E+00  0.00000000E+00  0.00000000E+00
  0.00000000E+00  0.00000000E+00  0.00000000E+00
  0.00000000E+00  0.00000000E+00  0.00000000E+00
  0.00000000E+00  0.00000000E+00  0.00000000E+00
  0.00000000E+00  0.00000000E+00  0.00000000E+00
  0.00000000E+00  0.00000000E+00  0.00000000E+00
  0.00000000E+00  0.00000000E+00  0.00000000E+00
  0.00000000E+00  0.00000000E+00  0.00000000E+00
  0.00000000E+00  0.00000000E+00  0.00000000E+00
  0.00000000E+00  0.00000000E+00  0.00000000E+00
  0.00000000E+00  0.00000000E+00  0.00000000E+00
  0.00000000E+00  0.00000000E+00  0.00000000E+00
  0.00000000E+00  0.00000000E+00  0.00000000E+00
  0.00000000E+00  0.00000000E+00  0.00000000E+00
  0.00000000E+00  0.00000000E+00  0.00000000E+00
  0.00000000E+00  0.00000000E+00  0.00000000E+00
  0.00000000E+00  0.00000000E+00  0.00000000E+00
  0.00000000E+00  0.00000000E+00  0.00000000E+00
  0.00000000E+00  0.00000000E+00  0.00000000E+00
  0.00000000E+00  0.00000000E+00  0.00000000E+00
  0.00000000E+00  0.00000000E+00  0.00000000E+00
  0.00000000E+00  0.00000000E+00  0.00000000E+00
  0.00000000E+00  0.00000000E+00  0.00000000E+00
  0.00000000E+00  0.00000000E+00  0.00000000E+00
  0.00000000E+00  0.00000000E+00  0.00000000E+00
  0.00000000E+00  0.00000000E+00  0.00000000E+00
  0.00000000E+00  0.00000000E+00  0.00000000E+00
