Al  O 
 1.0000000000000000
    17.1805725098000011    0.0000000000000000    0.0000000000000000
     8.5902872455000008   14.8788116730999995    0.0000000000000000
     0.0000000000000000    0.0000000000000000   37.5999999999999943
 Al  O  
 252 128
Cartesian
 11.4537150230125508  6.6128052409468854  2.3379801300000000
 14.3171441878853258 11.5724092758087309  2.3379801300000000
  8.5902858495495451  1.6532020839349284  2.3379801300000000
 17.1805721769409097  6.6128052409468854  2.3379801300000000
 20.0440023726480376 11.5724092758087309  2.3379801300000000
 14.3171435188950795  1.6532020839349284  2.3379801300000000
  5.7268568382498390  6.6128052409468854  2.3379801300000000
  8.5902880476107448 11.5724092758087309  2.3379801300000000
  2.8634281802040098  1.6532020839349284  2.3379801300000000
 14.3171439591617204  8.2660068785174641  4.6759602299999985
 17.1805728749161659 13.2256104818937708  4.6759602299999985
 11.4537155588245074  3.3064041678698568  4.6759602299999985
 20.0440021611050021  8.2660068785174641  4.6759602299999985
 22.9074300460251017 13.2256104818937708  4.6759602299999985
 17.1805737607677891  3.3064041678698568  4.6759602299999985
  8.5902868052333599  8.2660068785174641  4.6759602299999985
 11.4537157209878071 13.2256104818937708  4.6759602299999985
  5.7268584048961486  3.3064041678698568  4.6759602299999985
 17.1805721479558962  9.9192071918738058  7.0139399100000004
 11.4537153558716440  0.0000000000000000  7.0139399100000004
 14.3171427253745041  4.9596027106476086  7.0139399100000004
  5.7268578229186069  9.9192071918738058  7.0139399100000004
  0.0000000000000000  0.0000000000000000  7.0139399100000004
  2.8634284003372121  4.9596027106476086  7.0139399100000004
 11.4537160076813169  9.9192071918738058  7.0139399100000004
  5.7268581847627109  0.0000000000000000  7.0139399100000004
  8.5902845406117940  4.9596027106476086  7.0139399100000004
 20.0440023726480376 11.5724092758087309  9.3519204899999995
 14.3171435188950795  1.6532020839349284  9.3519204899999995
 17.1805729500666473  6.6128047945825355  9.3519204899999995
  8.5902880476107448 11.5724092758087309  9.3519204899999995
  2.8634281802040098  1.6532020839349284  9.3519204899999995
  5.7268586250293509  6.6128047945825355  9.3519204899999995
 14.3171441878853258 11.5724092758087309  9.3519204899999995
  8.5902843204785935  1.6532020839349284  9.3519204899999995
 11.4537147653039337  6.6128047945825355  9.3519204899999995
 22.9074300460251017 13.2256104818937708 11.6898992699999980
 17.1805737607677891  3.3064041678698568 11.6898992699999980
 20.0440011302706509  8.2660068785174641 11.6898992699999980
 11.4537157209878071 13.2256104818937708 11.6898992699999980
  5.7268584048961486  3.3064041678698568 11.6898992699999980
  8.5902847607452326  8.2660068785174641 11.6898992699999980
 17.1805718612623899 13.2256104818937708 11.6898992699999980
 11.4537145451707296  3.3064041678698568 11.6898992699999980
 14.3171449899960699  8.2660068785174641 11.6898992699999980
  0.0000000000000000  0.0000000000000000 14.0278798200000008
  2.8634284003372121  4.9596027106476086 14.0278798200000008
  5.7268578229186069  9.9192071918738058 14.0278798200000008
  5.7268581847627109  0.0000000000000000 14.0278798200000008
  8.5902845406117940  4.9596027106476086 14.0278798200000008
 11.4537139631931879  9.9192071918738058 14.0278798200000008
 11.4537143250372910  0.0000000000000000 14.0278798200000008
 14.3171447698626348  4.9596027106476086 14.0278798200000008
 17.1805741924440305  9.9192071918738058 14.0278798200000008
  2.8634281802040098  1.6532020839349284 16.3658594999999991
  5.7268586250293509  6.6128047945825355 16.3658594999999991
  8.5902860031226158 11.5724092758087309 16.3658594999999991
  8.5902843204785935  1.6532020839349284 16.3658594999999991
 11.4537147653039337  6.6128047945825355 16.3658594999999991
 14.3171441878853258 11.5724092758087309 16.3658594999999991
 14.3171445497294325  1.6532020839349284 16.3658594999999991
 17.1805749945547710  6.6128047945825355 16.3658594999999991
 20.0440003281599068 11.5724092758087309 16.3658594999999991
  7.1585719795808602  4.1330034392587320  2.3379801300000000
 10.0220014021622550  9.0926079204849302  2.3379801300000000
 12.8854308333338761 14.0522115238612351  2.3379801300000000
 12.8854296489263920  4.1330034392587320  2.3379801300000000
 15.7488590715077894  9.0926079204849302  2.3379801300000000
 18.6122879872622349 14.0522115238612351  2.3379801300000000
 18.6122868200353260  4.1330034392587320  2.3379801300000000
 21.4757172734510711  9.0926079204849302  2.3379801300000000
 24.3391451583711671 14.0522115238612351  2.3379801300000000
 10.0220011992094484  5.7862046453437719  4.6759602299999985
 12.8854301063736099 10.7458082338412684  4.6759602299999985
  7.1585727816916052  0.8266010419674642  4.6759602299999985
 15.7488583531378072  5.7862046453437719  4.6759602299999985
 18.6122872603019651 10.7458082338412684  4.6759602299999985
 12.8854304682177130  0.8266010419674642  4.6759602299999985
  4.2951440281005162  5.7862046453437719  4.6759602299999985
  7.1585729352646759 10.7458082338412684  4.6759602299999985
  1.4317130678579406  0.8266010419674642  4.6759602299999985
 12.8854298776499991  7.4394058365499989  7.0139399100000004
 15.7488598156485100 12.3990094250474954  7.0139399100000004
 10.0220009618956141  2.4798031259023929  7.0139399100000004
 18.6122870315783615  7.4394058365499989  7.0139399100000004
 21.4757169695768724 12.3990094250474954  7.0139399100000004
 15.7488586312411485  2.4798031259023929  7.0139399100000004
  7.1585716928872909  7.4394058365499989  7.0139399100000004
 10.0220006000514505 12.3990094250474954  7.0139399100000004
  4.2951432925500805  2.4798031259023929  7.0139399100000004
 15.7488590715077894  9.0926079204849302  9.3519204899999995
 18.6122879872622349 14.0522115238612351  9.3519204899999995
 12.8854306797607432  4.1330034392587320  9.3519204899999995
 21.4757172734510711  9.0926079204849302  9.3519204899999995
 24.3391451583711671 14.0522115238612351  9.3519204899999995
 18.6122868200353260  4.1330034392587320  9.3519204899999995
 10.0219998730912998  9.0926079204849302  9.3519204899999995
 12.8854308333338761 14.0522115238612351  9.3519204899999995
  7.1585724949980349  4.1330034392587320  9.3519204899999995
 18.6122872603019651 10.7458082338412684 11.6898992699999980
 12.8854304682177130  0.8266010419674642 11.6898992699999980
 15.7488578377205712  5.7862037526150711 11.6898992699999980
  7.1585729352646759 10.7458082338412684 11.6898992699999980
  1.4317130678579406  0.8266010419674642 11.6898992699999980
  4.2951435126832811  5.7862037526150711 11.6898992699999980
 12.8854311200273859 10.7458082338412684 11.6898992699999980
  7.1585712526206509  0.8266010419674642 11.6898992699999980
 10.0220016974459902  5.7862037526150711 11.6898992699999980
 21.4757169695768724 12.3990094250474954 14.0278798200000008
 15.7488586312411485  2.4798031259023929 14.0278798200000008
 18.6122860179245819  7.4394058365499989 14.0278798200000008
 10.0220006000514505 12.3990094250474954 14.0278798200000008
  4.2951432925500805  2.4798031259023929 14.0278798200000008
  7.1585716928872909  7.4394058365499989 14.0278798200000008
 15.7488587848141588 12.3990094250474954 14.0278798200000008
 10.0220014773127879  2.4798031259023929 14.0278798200000008
 12.8854319221381282  7.4394058365499989 14.0278798200000008
 24.3391451583711671 14.0522115238612351 16.3658594999999991
 18.6122868200353260  4.1330034392587320 16.3658594999999991
 21.4757162512068938  9.0926061499063398 16.3658594999999991
 12.8854308333338761 14.0522115238612351 16.3658594999999991
  7.1585724949980349  4.1330034392587320 16.3658594999999991
 10.0220008953352480  9.0926061499063398 16.3658594999999991
 18.6122890180965896 14.0522115238612351 16.3658594999999991
 12.8854327242488704  4.1330034392587320 16.3658594999999991
 15.7488570356098290  9.0926061499063398 16.3658594999999991
  8.5902864374580830  6.6128052409468854  2.3379801300000000
 11.4537150869136859 11.5724092758087309  2.3379801300000000
  5.7268577794122537  1.6532020839349284  2.3379801300000000
 14.3171441068036174  6.6128052409468854  2.3379801300000000
 17.1805722580226181 11.5724092758087309  2.3379801300000000
 11.4537154487577890  1.6532020839349284  2.3379801300000000
 20.0440023087469008  6.6128052409468854  2.3379801300000000
 22.9074304427853264 11.5724092758087309  2.3379801300000000
 17.1805736507010707  1.6532020839349284  2.3379801300000000
 11.4537153907878260  8.2660068785174641  4.6759602299999985
 14.3171443065422750 13.2256104818937708  4.6759602299999985
  8.5902859596162635  3.3064041678698568  4.6759602299999985
 17.1805720292990109  8.2660068785174641  4.6759602299999985
 20.0440019758878059 13.2256104818937708  4.6759602299999985
 14.3171436289617979  3.3064041678698568  4.6759602299999985
  5.7268566906079412  8.2660068785174641  4.6759602299999985
  8.5902876508505166 13.2256104818937708  4.6759602299999985
  2.8634282902707286  3.3064041678698568  4.6759602299999985
 14.3171440778186057  9.9192071918738058  7.0139399100000004
  8.5902852240656493  0.0000000000000000  7.0139399100000004
 11.4537146552372118  4.9596027106476086  7.0139399100000004
 20.0440022625813192  9.9192071918738058  7.0139399100000004
 14.3171434088283593  0.0000000000000000  7.0139399100000004
 17.1805728399999218  4.9596027106476086  7.0139399100000004
  8.5902879375440264  9.9192071918738058  7.0139399100000004
  2.8634280701372914  0.0000000000000000  7.0139399100000004
  5.7268585149626325  4.9596027106476086  7.0139399100000004
 17.1805722580226181 11.5724092758087309  9.3519204899999995
 11.4537154487577890  1.6532020839349284  9.3519204899999995
 14.3171428354412225  6.6128047945825355  9.3519204899999995
 22.9074304427853264 11.5724092758087309  9.3519204899999995
 17.1805736507010707  1.6532020839349284  9.3519204899999995
 20.0440010202039325  6.6128047945825355  9.3519204899999995
 11.4537161177480353 11.5724092758087309  9.3519204899999995
  5.7268582948294284  1.6532020839349284  9.3519204899999995
  8.5902846506785124  6.6128047945825355  9.3519204899999995
 20.0440019758878059 13.2256104818937708 11.6898992699999980
 14.3171436289617979  3.3064041678698568 11.6898992699999980
 17.1805730601333586  8.2660068785174641 11.6898992699999980
  8.5902876508505166 13.2256104818937708 11.6898992699999980
  2.8634282902707286  3.3064041678698568 11.6898992699999980
  5.7268587350960694  8.2660068785174641 11.6898992699999980
 14.3171458356132266 13.2256104818937708 11.6898992699999980
  8.5902844305453101  3.3064041678698568 11.6898992699999980
 11.4537148753706504  8.2660068785174641 11.6898992699999980
 14.3171434088283593  0.0000000000000000 14.0278798200000008
 17.1805728399999218  4.9596027106476086 14.0278798200000008
 20.0440012317469645  9.9192071918738058 14.0278798200000008
  2.8634280701372914  0.0000000000000000 14.0278798200000008
  5.7268585149626325  4.9596027106476086 14.0278798200000008
  8.5902858930558974  9.9192071918738058 14.0278798200000008
  8.5902842104118715  0.0000000000000000 14.0278798200000008
 11.4537146552372118  4.9596027106476086 14.0278798200000008
 14.3171440778186057  9.9192071918738058 14.0278798200000008
 17.1805736507010707  1.6532020839349284 16.3658594999999991
 20.0440010202039325  6.6128047945825355 16.3658594999999991
 22.9074314736196776 11.5724092758087309 16.3658594999999991
  5.7268582948294284  1.6532020839349284 16.3658594999999991
  8.5902846506785124  6.6128047945825355 16.3658594999999991
 11.4537140732599063 11.5724092758087309 16.3658594999999991
 11.4537144351040112  1.6532020839349284 16.3658594999999991
 14.3171448799293497  6.6128047945825355 16.3658594999999991
 17.1805743025107454 11.5724092758087309 16.3658594999999991
 10.0220010805525011  4.1330034392587320  2.3379801300000000
 12.8854305031338967  9.0926079204849302  2.3379801300000000
 15.7488594188883422 14.0522115238612351  2.3379801300000000
 15.7488587498980372  4.1330034392587320  2.3379801300000000
 18.6122871416450799  9.0926079204849302  2.3379801300000000
 21.4757170882338819 14.0522115238612351  2.3379801300000000
  4.2951444248607444  4.1330034392587320  2.3379801300000000
  7.1585718029540102  9.0926079204849302  2.3379801300000000
 10.0220007187084565 14.0522115238612351  2.3379801300000000
 12.8854302830005167  5.7862046453437719  4.6759602299999985
 15.7488591901646764 10.7458082338412684  4.6759602299999985
 10.0220003364117201  0.8266010419674642  4.6759602299999985
 18.6122864232750977  5.7862046453437719  4.6759602299999985
 21.4757173749273846 10.7458082338412684  4.6759602299999985
 15.7488585383550017  0.8266010419674642  4.6759602299999985
  7.1585720982378076  5.7862046453437719  4.6759602299999985
 10.0220010054019664 10.7458082338412684  4.6759602299999985
  4.2951431824833612  0.8266010419674642  4.6759602299999985
 15.7488589786216444  7.4394058365499989  7.0139399100000004
 18.6122868549514529 12.3990094250474954  7.0139399100000004
 12.8854305782844332  2.4798031259023929  7.0139399100000004
  4.2951436227499995  7.4394058365499989  7.0139399100000004
  7.1585725299141600 12.3990094250474954  7.0139399100000004
  1.4317152224127883  2.4798031259023929  7.0139399100000004
 10.0219997630245814  7.4394058365499989  7.0139399100000004
 12.8854307146768718 12.3990094250474954  7.0139399100000004
  7.1585713626873710  2.4798031259023929  7.0139399100000004
 18.6122871416450799  9.0926079204849302  9.3519204899999995
 21.4757170882338819 14.0522115238612351  9.3519204899999995
 15.7488587498980372  4.1330034392587320  9.3519204899999995
  7.1585718029540102  9.0926079204849302  9.3519204899999995
 10.0220007187084565 14.0522115238612351  9.3519204899999995
  4.2951444248607444  4.1330034392587320  9.3519204899999995
 12.8854299877167229  9.0926079204849302  9.3519204899999995
 15.7488589034711683 14.0522115238612351  9.3519204899999995
 10.0220026096234545  4.1330034392587320  9.3519204899999995
 21.4757173749273846 10.7458082338412684 11.6898992699999980
 15.7488585383550017  0.8266010419674642 11.6898992699999980
 18.6122859078578671  5.7862037526150711 11.6898992699999980
 10.0220010054019664 10.7458082338412684 11.6898992699999980
  4.2951431824833612  0.8266010419674642 11.6898992699999980
  7.1585715828205725  5.7862037526150711 11.6898992699999980
 15.7488571456765492 10.7458082338412684 11.6898992699999980
 10.0220013672460695  0.8266010419674642 11.6898992699999980
 12.8854318120714115  5.7862037526150711 11.6898992699999980
  7.1585725299141600 12.3990094250474954 14.0278798200000008
  1.4317152224127883  2.4798031259023929 14.0278798200000008
  4.2951436227499995  7.4394058365499989 14.0278798200000008
 12.8854307146768718 12.3990094250474954 14.0278798200000008
  7.1585713626873710  2.4798031259023929 14.0278798200000008
 10.0220018075127104  7.4394058365499989 14.0278798200000008
 18.6122888994395836 12.3990094250474954 14.0278798200000008
 12.8854315919382110  2.4798031259023929 14.0278798200000008
 15.7488579477872914  7.4394058365499989 14.0278798200000008
 10.0220007187084565 14.0522115238612351 16.3658594999999991
  4.2951444248607444  4.1330034392587320 16.3658594999999991
  7.1585728251979566  9.0926061499063398 16.3658594999999991
 15.7488589034711683 14.0522115238612351 16.3658594999999991
 10.0220026096234545  4.1330034392587320 16.3658594999999991
 12.8854310099606693  9.0926061499063398 16.3658594999999991
 21.4757191327220056 14.0522115238612351 16.3658594999999991
 15.7488587498980372  4.1330034392587320 16.3658594999999991
 18.6122871502352538  9.0926061499063398 16.3658594999999991
  0.0000000000000000  0.0000000000000000 17.7658594999999977
  0.0000000000000000  0.0000000000000000 18.9658594999999970
  1.0737859056875001  1.8598514591374999 17.7658594999999977
  1.0737859056875001  1.8598514591374999 18.9658594999999970
  2.1475718113750002  3.7197029182749999 17.7658594999999977
  2.1475718113750002  3.7197029182749999 18.9658594999999970
  3.2213577170625003  5.5795543774124994 17.7658594999999977
  3.2213577170625003  5.5795543774124994 18.9658594999999970
  4.2951436227500004  7.4394058365499998 17.7658594999999977
  4.2951436227500004  7.4394058365499998 18.9658594999999970
  5.3689295284375005  9.2992572956875001 17.7658594999999977
  5.3689295284375005  9.2992572956875001 18.9658594999999970
  6.4427154341250006 11.1591087548249988 17.7658594999999977
  6.4427154341250006 11.1591087548249988 18.9658594999999970
  7.5165013398125007 13.0189602139624991 17.7658594999999977
  7.5165013398125007 13.0189602139624991 18.9658594999999970
  2.1475715637250001  0.0000000000000000 17.7658594999999977
  2.1475715637250001  0.0000000000000000 18.9658594999999970
  3.2213574694125002  1.8598514591374999 17.7658594999999977
  3.2213574694125002  1.8598514591374999 18.9658594999999970
  4.2951433751000003  3.7197029182749999 17.7658594999999977
  4.2951433751000003  3.7197029182749999 18.9658594999999970
  5.3689292807875004  5.5795543774124994 17.7658594999999977
  5.3689292807875004  5.5795543774124994 18.9658594999999970
  6.4427151864750005  7.4394058365499998 17.7658594999999977
  6.4427151864750005  7.4394058365499998 18.9658594999999970
  7.5165010921625006  9.2992572956875001 17.7658594999999977
  7.5165010921625006  9.2992572956875001 18.9658594999999970
  8.5902869978500007 11.1591087548249988 17.7658594999999977
  8.5902869978500007 11.1591087548249988 18.9658594999999970
  9.6640729035375017 13.0189602139624991 17.7658594999999977
  9.6640729035375017 13.0189602139624991 18.9658594999999970
  4.2951431274500003  0.0000000000000000 17.7658594999999977
  4.2951431274500003  0.0000000000000000 18.9658594999999970
  5.3689290331375004  1.8598514591374999 17.7658594999999977
  5.3689290331375004  1.8598514591374999 18.9658594999999970
  6.4427149388250005  3.7197029182749999 17.7658594999999977
  6.4427149388250005  3.7197029182749999 18.9658594999999970
  7.5165008445125006  5.5795543774124994 17.7658594999999977
  7.5165008445125006  5.5795543774124994 18.9658594999999970
  8.5902867502000007  7.4394058365499998 17.7658594999999977
  8.5902867502000007  7.4394058365499998 18.9658594999999970
  9.6640726558875016  9.2992572956875001 17.7658594999999977
  9.6640726558875016  9.2992572956875001 18.9658594999999970
 10.7378585615750008 11.1591087548249988 17.7658594999999977
 10.7378585615750008 11.1591087548249988 18.9658594999999970
 11.8116444672625001 13.0189602139624991 17.7658594999999977
 11.8116444672625001 13.0189602139624991 18.9658594999999970
  6.4427146911750004  0.0000000000000000 17.7658594999999977
  6.4427146911750004  0.0000000000000000 18.9658594999999970
  7.5165005968625005  1.8598514591374999 17.7658594999999977
  7.5165005968625005  1.8598514591374999 18.9658594999999970
  8.5902865025500006  3.7197029182749999 17.7658594999999977
  8.5902865025500006  3.7197029182749999 18.9658594999999970
  9.6640724082375016  5.5795543774124994 17.7658594999999977
  9.6640724082375016  5.5795543774124994 18.9658594999999970
 10.7378583139250008  7.4394058365499998 17.7658594999999977
 10.7378583139250008  7.4394058365499998 18.9658594999999970
 11.8116442196125000  9.2992572956875001 17.7658594999999977
 11.8116442196125000  9.2992572956875001 18.9658594999999970
 12.8854301253000010 11.1591087548249988 17.7658594999999977
 12.8854301253000010 11.1591087548249988 18.9658594999999970
 13.9592160309875020 13.0189602139624991 17.7658594999999977
 13.9592160309875020 13.0189602139624991 18.9658594999999970
  8.5902862549000005  0.0000000000000000 17.7658594999999977
  8.5902862549000005  0.0000000000000000 18.9658594999999970
  9.6640721605875015  1.8598514591374999 17.7658594999999977
  9.6640721605875015  1.8598514591374999 18.9658594999999970
 10.7378580662750007  3.7197029182749999 17.7658594999999977
 10.7378580662750007  3.7197029182749999 18.9658594999999970
 11.8116439719624999  5.5795543774124994 17.7658594999999977
 11.8116439719624999  5.5795543774124994 18.9658594999999970
 12.8854298776500009  7.4394058365499998 17.7658594999999977
 12.8854298776500009  7.4394058365499998 18.9658594999999970
 13.9592157833375019  9.2992572956875001 17.7658594999999977
 13.9592157833375019  9.2992572956875001 18.9658594999999970
 15.0330016890250011 11.1591087548249988 17.7658594999999977
 15.0330016890250011 11.1591087548249988 18.9658594999999970
 16.1067875947125003 13.0189602139624991 17.7658594999999977
 16.1067875947125003 13.0189602139624991 18.9658594999999970
 10.7378578186250007  0.0000000000000000 17.7658594999999977
 10.7378578186250007  0.0000000000000000 18.9658594999999970
 11.8116437243125016  1.8598514591374999 17.7658594999999977
 11.8116437243125016  1.8598514591374999 18.9658594999999970
 12.8854296300000009  3.7197029182749999 17.7658594999999977
 12.8854296300000009  3.7197029182749999 18.9658594999999970
 13.9592155356875018  5.5795543774124994 17.7658594999999977
 13.9592155356875018  5.5795543774124994 18.9658594999999970
 15.0330014413750028  7.4394058365499998 17.7658594999999977
 15.0330014413750028  7.4394058365499998 18.9658594999999970
 16.1067873470625003  9.2992572956875001 17.7658594999999977
 16.1067873470625003  9.2992572956875001 18.9658594999999970
 17.1805732527500012 11.1591087548249988 17.7658594999999977
 17.1805732527500012 11.1591087548249988 18.9658594999999970
 18.2543591584375022 13.0189602139624991 17.7658594999999977
 18.2543591584375022 13.0189602139624991 18.9658594999999970
 12.8854293823500008  0.0000000000000000 17.7658594999999977
 12.8854293823500008  0.0000000000000000 18.9658594999999970
 13.9592152880375018  1.8598514591374999 17.7658594999999977
 13.9592152880375018  1.8598514591374999 18.9658594999999970
 15.0330011937250010  3.7197029182749999 17.7658594999999977
 15.0330011937250010  3.7197029182749999 18.9658594999999970
 16.1067870994125002  5.5795543774124994 17.7658594999999977
 16.1067870994125002  5.5795543774124994 18.9658594999999970
 17.1805730051000012  7.4394058365499998 17.7658594999999977
 17.1805730051000012  7.4394058365499998 18.9658594999999970
 18.2543589107875022  9.2992572956875001 17.7658594999999977
 18.2543589107875022  9.2992572956875001 18.9658594999999970
 19.3281448164750032 11.1591087548249988 17.7658594999999977
 19.3281448164750032 11.1591087548249988 18.9658594999999970
 20.4019307221625006 13.0189602139624991 17.7658594999999977
 20.4019307221625006 13.0189602139624991 18.9658594999999970
 15.0330009460750009  0.0000000000000000 17.7658594999999977
 15.0330009460750009  0.0000000000000000 18.9658594999999970
 16.1067868517625001  1.8598514591374999 17.7658594999999977
 16.1067868517625001  1.8598514591374999 18.9658594999999970
 17.1805727574500011  3.7197029182749999 17.7658594999999977
 17.1805727574500011  3.7197029182749999 18.9658594999999970
 18.2543586631375021  5.5795543774124994 17.7658594999999977
 18.2543586631375021  5.5795543774124994 18.9658594999999970
 19.3281445688249995  7.4394058365499998 17.7658594999999977
 19.3281445688249995  7.4394058365499998 18.9658594999999970
 20.4019304745125005  9.2992572956875001 17.7658594999999977
 20.4019304745125005  9.2992572956875001 18.9658594999999970
 21.4757163801999980 11.1591087548249988 17.7658594999999977
 21.4757163801999980 11.1591087548249988 18.9658594999999970
 22.5495022858874989 13.0189602139624991 17.7658594999999977
 22.5495022858874989 13.0189602139624991 18.9658594999999970
