New structure                           
    1.000000000000000     
     0.0000000000000000  -17.1805734624895479    0.0000000000000000
     0.0000000000000000   -8.5902867312447739  -14.8788130701007191
    30.0000000000000000    0.0000000000000000    0.0000000000000000
   Al   O 
   252     1
Direct
  0.4443566810461026  0.4446199712411231  0.0825863535293696
  0.4441857276591098  0.7779498048593310  0.0825605006458445
  0.4445547729624903  0.1110826366398200  0.0825789962902642
  0.7776776912157821  0.4445155363028699  0.0825615991592325
  0.7779730365843355  0.7773872601646656  0.0824425842561352
  0.7776959237310259  0.1110826366398200  0.0825789962902642
  0.1111401058146835  0.4445155363028699  0.0825615991592325
  0.1111978008148952  0.7779498048593310  0.0825605006458445
  0.1110703017040941  0.1111927299251547  0.0827519327171271
  0.5556539902032291  0.5555724871651077  0.1598909603801879
  0.5556103955377180  0.8887386108570384  0.1598207979452143
  0.5555874513432449  0.2221584306468468  0.1599534801376762
  0.8890235482619321  0.5552862368094647  0.1599790351919584
  0.8889843269385724  0.8887386108570384  0.1598207979452143
  0.8890359261099346  0.2222457125693970  0.1601132179667852
  0.2221068559649987  0.5555724871651077  0.1598909603801879
  0.2221639885267575  0.8890053562798139  0.1599818428112249
  0.2220516946539968  0.2222457125693970  0.1601132179667852
  0.6667550575496900  0.6667636090974745  0.2355965199359995
  0.6667644187495025 -0.0001955041656767  0.2353236775763909
  0.6665538560836457  0.3334295777410967  0.2355134908051616
 -0.0001853333138361  0.6667636090974745  0.2355965199359995
 -0.0000456913395442  0.0000241660404449  0.2356242137247688
  0.0001181257545264  0.3330970818242832  0.2358209003596846
  0.3332805012124422  0.6667723309084512  0.2354476891437130
  0.3333548586324350  0.0000241660404449  0.2356242137247688
  0.3333498995085935  0.3334295777410967  0.2355134908051616
  0.7778092380130488  0.7777148573072381  0.3116388436692993
  0.7778624373158659  0.1110663324148941  0.3117065334796889
  0.7777713269450806  0.4443895999648382  0.3118278242326580
  0.1112406948511275  0.7777057983219927  0.3117438482764701
  0.1111667015501756  0.1109999302329917  0.3122694012763417
  0.1111724064234172  0.4443895999648382  0.3118278242326580
  0.4443868401602153  0.7777057983219927  0.3117438482764701
  0.4444045636025754  0.1110663324148941  0.3117065334796889
  0.4444282404264188  0.4444768524804916  0.3118117683791472
  0.8889727138940786  0.8887729081694294  0.3880320682606641
  0.8888879904627210  0.2221832120596508  0.3883837906368813
  0.8889017638348066  0.5555298056637158  0.3880983541227578
  0.2221810943969330  0.8889711445394625  0.3881927853236788
  0.2222621308109567  0.2221832120596508  0.3883837906368813
  0.2225528337200768  0.5555931506570962  0.3882071588214461
  0.5555877112698208  0.8887729081694294  0.3880320682606641
  0.5556219482019548  0.2220894369294259  0.3879789182287665
  0.5551873489561630  0.5555931506570962  0.3882071588214461
 -0.0001124157958868  0.0000142977957253  0.4639742046646794
  0.0000344097655248  0.3332645138022862  0.4641140916992366
 -0.0007244753749073  0.6671529056750094  0.4636052936692196
  0.3334314513334973  0.0000142977957253  0.4639742046646794
  0.3335113572062314  0.3327208978953420  0.4633617485574730
  0.3332413962974750  0.6668505407383858  0.4636172663758062
  0.6667916948874636 -0.0002500564415983  0.4635460050209146
  0.6671010782317622  0.3327208978953420  0.4633617485574730
  0.6669049030332266  0.6671529056750094  0.4636052936692196
  0.1110330681934899  0.1112671969463631  0.5415404751853748
  0.1107136765290393  0.4443365716662772  0.5412051653732354
  0.1117132476664295  0.7777941592943280  0.5411261388312495
  0.4448331849824735  0.1110042814579930  0.5412277404929154
  0.4462231798852159  0.4408869735628966  0.5414194652151493
  0.4438259263725784  0.7777941592943280  0.5411261388312495
  0.7774958668928692  0.1110042814579930  0.5412277404929154
  0.7782830851380191  0.4443365716662772  0.5412051653732354
  0.7777293477379095  0.7778746378575173  0.5408087670432929
  0.2778488696362056  0.2778067724813478  0.0825615991592325
  0.2779533045744588  0.6110233477127739  0.0825863535293696
  0.2778488696362056  0.9443443578824464  0.0825615991592325
  0.6112831381926667  0.2778644674815595  0.0825605006458445
  0.6112831381926667  0.6108523943257813  0.0825605006458445
  0.6107205934980013  0.9446397032509998  0.0824425842561352
  0.9445260632584832  0.2777369683707584  0.0827519327171271
  0.9444159699731487  0.6112214396291620  0.0825789962902642
  0.9444159699731487  0.9443625903976902  0.0825789962902642
  0.3889058204984362  0.3887735226316631  0.1598909603801879
  0.3889058204984362  0.7223206568698934  0.1598909603801879
  0.3886195701427934  0.0556902149286033  0.1599790351919584
  0.7223386896131496  0.3888306551934216  0.1599818428112249
  0.7220719441903741  0.7222770622043823  0.1598207979452143
  0.7220719441903741  0.0556509936052437  0.1598207979452143
  0.0555790459027327  0.3887183613206611  0.1601132179667852
  0.0554917639801825  0.7222541180099092  0.1599534801376762
  0.0555790459027327  0.0557025927766061  0.1601132179667852
  0.5001056642417870  0.4999471678791064  0.2354476891437130
  0.5000969424308102  0.8334217242163614  0.2355965199359995
  0.5000969424308102  0.1664813333528282  0.2355965199359995
  0.8333574993737805  0.5000215252990993  0.2356242137247688
  0.8331378291676589  0.8334310854161739  0.2353236775763909
  0.8333574993737805  0.1666209753271201  0.2356242137247688
  0.1667629110744254  0.5000165661752577  0.2355134908051616
  0.1667629110744254  0.8332205227503171  0.2355134908051616
  0.1664304151576116  0.1667847924211906  0.2358209003596846
  0.6110391316553284  0.6110535068268871  0.3117438482764701
  0.6110481906405738  0.9444759046797131  0.3116388436692993
  0.6110391316553284  0.2779073615177918  0.3117438482764701
  0.9443996657482229  0.6110712302692466  0.3117065334796889
  0.9443996657482229  0.9445291039825302  0.3117065334796889
  0.9443332635663205  0.2778333682168397  0.3122694012763417
  0.2778101858138273  0.6110949070930901  0.3118117683791472
  0.2777229332981739  0.9444379936117449  0.3118278242326580
  0.2777229332981739  0.2778390730900814  0.3118278242326580
  0.7221062415027651  0.7222543779364851  0.3880320682606641
  0.7221062415027651  0.0556393805607500  0.3880320682606641
  0.7223044778727982  0.3888477610635974  0.3881927853236788
  0.0554227702627617  0.7222886148686191  0.3879789182287665
  0.0555165453929865  0.0555546571293925  0.3883837906368813
  0.0555165453929865  0.3889287974776211  0.3883837906368813
  0.3889264839904245  0.7218540156228272  0.3882071588214461
  0.3888631389970442  0.0555684305014779  0.3880983541227578
  0.3889264839904245  0.3892195003867410  0.3882071588214461
  0.8330832768917372  0.8334583615541350  0.4635460050209146
  0.8333476311290615  0.1665542508707776  0.4639742046646794
  0.8333476311290615  0.5000981180001616  0.4639742046646794
  0.1660542312286705  0.8337677448984336  0.4633617485574730
  0.1665978471356148  0.1667010764321891  0.4641140916992366
  0.1660542312286705  0.5001780238728959  0.4633617485574730
  0.5004862390083451  0.8335715696998980  0.4636052936692196
  0.5004862390083451  0.1659421912917570  0.4636052936692196
  0.5001838740717215  0.4999080629641391  0.4636172663758062
  0.9443376147913215  0.9441625335595335  0.5412277404929154
  0.9446005302796919  0.2776997348601540  0.5415404751853748
  0.9443376147913215  0.6114998516491451  0.5412277404929154
  0.2776699049996129  0.9449497518046834  0.5412051653732354
  0.2776699049996129  0.2773803431957039  0.5412051653732354
  0.2742203068962323  0.6128898465518875  0.5414194652151493
  0.6112079711908530  0.9443960144045738  0.5408087670432929
  0.6111274926276637  0.2783799143330939  0.5411261388312495
  0.6111274926276637  0.6104925930392494  0.5411261388312495
  0.2777872829476302  0.4444539496142945  0.0822840579415364
  0.2777872829476302  0.7777587674380753  0.0822840579415364
  0.2777316271565032  0.1111341864217519  0.0827723444851731
  0.6110921007714110  0.4444539496142945  0.0822840579415364
  0.6109892896909204  0.7776559563575847  0.0825915330512262
  0.6109892896909204  0.1113547539515023  0.0825915330512262
  0.9444675197550809  0.4443982938231675  0.0827723444851731
  0.9446880872848309  0.7776559563575847  0.0825915330512262
  0.9444675197550809  0.1111341864217519  0.0827723444851731
  0.3888888888888857  0.5555555555555571  0.1600602276650127
  0.3887095596704314  0.8890585367877695  0.1598881159100370
  0.3887095596704314  0.2222319035417923  0.1598881159100370
  0.7223918701211052  0.5553762263371026  0.1598881159100370
  0.7222222222222214  0.8888888888888857  0.1597783895723912
  0.7223918701211052  0.2222319035417923  0.1598881159100370
  0.0555652368751280  0.5553762263371026  0.1598881159100370
  0.0555652368751280  0.8890585367877695  0.1598881159100370
  0.0555555555555571  0.2222222222222214  0.1601666543799030
  0.4999282456411112  0.6665949123077762  0.2353444423893805
  0.5001752865118244 -0.0000876432559122  0.2353752029992461
  0.4999282456411112  0.3334768420511130  0.2353444423893805
  0.8332456900774234  0.6668419531784887  0.2353752029992461
  0.8332456900774234 -0.0000876432559122  0.2353752029992461
  0.8334955246449327  0.3332522376775372  0.2356561249890496
  0.1668101753844417  0.6665949123077762  0.2353444423893805
  0.1665855710108658  0.0001621913115971  0.2356561249890496
  0.1665855710108658  0.3332522376775372  0.2356561249890496
  0.6112515563635733  0.7779182230302376  0.3115771393320205
  0.6112515563635733  0.1108302206061960  0.3115771393320205
  0.6110006203782853  0.4444996898108574  0.3118498780688062
  0.9441635539395248  0.7779182230302376  0.3115771393320205
  0.9445504452834287  0.1112171119501003  0.3120518564295668
  0.9445504452834287  0.4442324427664706  0.3120518564295668
  0.2778330231441931  0.7776672870449496  0.3118498780688062
  0.2775657760998063  0.1112171119501003  0.3120518564295668
  0.2778330231441931  0.4444996898108574  0.3118498780688062
  0.7222222222222214  0.8888888888888857  0.3882064636236518
  0.7221478194131861  0.2221407021113375  0.3880474129843071
  0.7221478194131861  0.5557114784754764  0.3880474129843071
  0.0554740354446732  0.8888144860798504  0.3880474129843071
  0.0555555555555571  0.2222222222222214  0.3885304366894627
  0.0554740354446732  0.5557114784754764  0.3880474129843071
  0.3890448118088051  0.8888144860798504  0.3880474129843071
  0.3890448118088051  0.2221407021113375  0.3880474129843071
  0.3888888888888857  0.5555555555555571  0.3878765275948279
  0.8333453361581306  0.0000120028247952  0.4636619439004077
  0.8337906548466137  0.3331046725766967  0.4639030828838386
  0.8333453361581306  0.6666426610170739  0.4636619439004077
  0.1664380059100253  0.0004573215132780  0.4639030828838386
  0.1664380059100253  0.3331046725766967  0.4639030828838386
  0.1656621996458883  0.6671689001770521  0.4633239645071597
  0.4999759943504097  0.0000120028247952  0.4636619439004077
  0.5005022335103880  0.3323288663125596  0.4633239645071597
  0.5005022335103880  0.6671689001770521  0.4633239645071597
  0.9445396744579659  0.1112063411246373  0.5415768566170698
  0.9445396744579659  0.4442539844173968  0.5415768566170698
  0.9450727271448524  0.7774636364275737  0.5412804208930763
  0.2775873177507325  0.1112063411246373  0.5415768566170698
  0.2762642282708205  0.4429308949374848  0.5392850645436823
  0.2762642282708205  0.7808048767916947  0.5392850645436823
  0.6107969697609094  0.1117393938115238  0.5412804208930763
  0.6141382101250304  0.4429308949374848  0.5392850645436823
  0.6107969697609094  0.7774636364275737  0.5412804208930763
  0.4441857276591098  0.2778644674815595  0.0825605006458445
  0.4443566810461026  0.6110233477127739  0.0825863535293696
  0.4445547729624903  0.9443625903976902  0.0825789962902642
  0.7776776912157821  0.2778067724813478  0.0825615991592325
  0.7776959237310259  0.6112214396291620  0.0825789962902642
  0.7779730365843355  0.9446397032509998  0.0824425842561352
  0.1110703017040941  0.2777369683707584  0.0827519327171271
  0.1111978008148952  0.6108523943257813  0.0825605006458445
  0.1111401058146835  0.9443443578824464  0.0825615991592325
  0.5556539902032291  0.3887735226316631  0.1598909603801879
  0.5555874513432449  0.7222541180099092  0.1599534801376762
  0.5556103955377180  0.0556509936052437  0.1598207979452143
  0.8890359261099346  0.3887183613206611  0.1601132179667852
  0.8889843269385724  0.7222770622043823  0.1598207979452143
  0.8890235482619321  0.0556902149286033  0.1599790351919584
  0.2221639885267575  0.3888306551934216  0.1599818428112249
  0.2221068559649987  0.7223206568698934  0.1598909603801879
  0.2220516946539968  0.0557025927766061  0.1601132179667852
  0.6665538560836457  0.5000165661752577  0.2355134908051616
  0.6667644187495025  0.8334310854161739  0.2353236775763909
  0.6667550575496900  0.1664813333528282  0.2355965199359995
 -0.0000456913395442  0.5000215252990993  0.2356242137247688
 -0.0001853333138361  0.8334217242163614  0.2355965199359995
  0.0001181257545264  0.1667847924211906  0.2358209003596846
  0.3332805012124422  0.4999471678791064  0.2354476891437130
  0.3333498995085935  0.8332205227503171  0.2355134908051616
  0.3333548586324350  0.1666209753271201  0.2356242137247688
  0.7778624373158659  0.6110712302692466  0.3117065334796889
  0.7778092380130488  0.9444759046797131  0.3116388436692993
  0.7777713269450806  0.2778390730900814  0.3118278242326580
  0.1112406948511275  0.6110535068268871  0.3117438482764701
  0.1111724064234172  0.9444379936117449  0.3118278242326580
  0.1111667015501756  0.2778333682168397  0.3122694012763417
  0.4444282404264188  0.6110949070930901  0.3118117683791472
  0.4444045636025754  0.9445291039825302  0.3117065334796889
  0.4443868401602153  0.2779073615177918  0.3117438482764701
  0.8889727138940786  0.7222543779364851  0.3880320682606641
  0.8889017638348066  0.0555684305014779  0.3880983541227578
  0.8888879904627210  0.3889287974776211  0.3883837906368813
  0.2225528337200768  0.7218540156228272  0.3882071588214461
  0.2222621308109567  0.0555546571293925  0.3883837906368813
  0.2221810943969330  0.3888477610635974  0.3881927853236788
  0.5556219482019548  0.7222886148686191  0.3879789182287665
  0.5555877112698208  0.0556393805607500  0.3880320682606641
  0.5551873489561630  0.3892195003867410  0.3882071588214461
 -0.0007244753749073  0.8335715696998980  0.4636052936692196
  0.0000344097655248  0.1667010764321891  0.4641140916992366
 -0.0001124157958868  0.5000981180001616  0.4639742046646794
  0.3335113572062314  0.8337677448984336  0.4633617485574730
  0.3334314513334973  0.1665542508707776  0.4639742046646794
  0.3332413962974750  0.4999080629641391  0.4636172663758062
  0.6667916948874636  0.8334583615541350  0.4635460050209146
  0.6669049030332266  0.1659421912917570  0.4636052936692196
  0.6671010782317622  0.5001780238728959  0.4633617485574730
  0.1107136765290393  0.9449497518046834  0.5412051653732354
  0.1110330681934899  0.2776997348601540  0.5415404751853748
  0.1117132476664295  0.6104925930392494  0.5411261388312495
  0.4448331849824735  0.9441625335595335  0.5412277404929154
  0.4438259263725784  0.2783799143330939  0.5411261388312495
  0.4462231798852159  0.6128898465518875  0.5414194652151493
  0.7777293477379095  0.9443960144045738  0.5408087670432929
  0.7782830851380191  0.2773803431957039  0.5412051653732354
  0.7774958668928692  0.6114998516491451  0.5412277404929154
  0.3888888888888857  0.5555555555555571  0.5663497501274859
 
  0.00000000E+00  0.00000000E+00  0.00000000E+00
  0.00000000E+00  0.00000000E+00  0.00000000E+00
  0.00000000E+00  0.00000000E+00  0.00000000E+00
  0.00000000E+00  0.00000000E+00  0.00000000E+00
  0.00000000E+00  0.00000000E+00  0.00000000E+00
  0.00000000E+00  0.00000000E+00  0.00000000E+00
  0.00000000E+00  0.00000000E+00  0.00000000E+00
  0.00000000E+00  0.00000000E+00  0.00000000E+00
  0.00000000E+00  0.00000000E+00  0.00000000E+00
  0.00000000E+00  0.00000000E+00  0.00000000E+00
  0.00000000E+00  0.00000000E+00  0.00000000E+00
  0.00000000E+00  0.00000000E+00  0.00000000E+00
  0.00000000E+00  0.00000000E+00  0.00000000E+00
  0.00000000E+00  0.00000000E+00  0.00000000E+00
  0.00000000E+00  0.00000000E+00  0.00000000E+00
  0.00000000E+00  0.00000000E+00  0.00000000E+00
  0.00000000E+00  0.00000000E+00  0.00000000E+00
  0.00000000E+00  0.00000000E+00  0.00000000E+00
  0.00000000E+00  0.00000000E+00  0.00000000E+00
  0.00000000E+00  0.00000000E+00  0.00000000E+00
  0.00000000E+00  0.00000000E+00  0.00000000E+00
  0.00000000E+00  0.00000000E+00  0.00000000E+00
  0.00000000E+00  0.00000000E+00  0.00000000E+00
  0.00000000E+00  0.00000000E+00  0.00000000E+00
  0.00000000E+00  0.00000000E+00  0.00000000E+00
  0.00000000E+00  0.00000000E+00  0.00000000E+00
  0.00000000E+00  0.00000000E+00  0.00000000E+00
  0.00000000E+00  0.00000000E+00  0.00000000E+00
  0.00000000E+00  0.00000000E+00  0.00000000E+00
  0.00000000E+00  0.00000000E+00  0.00000000E+00
  0.00000000E+00  0.00000000E+00  0.00000000E+00
  0.00000000E+00  0.00000000E+00  0.00000000E+00
  0.00000000E+00  0.00000000E+00  0.00000000E+00
  0.00000000E+00  0.00000000E+00  0.00000000E+00
  0.00000000E+00  0.00000000E+00  0.00000000E+00
  0.00000000E+00  0.00000000E+00  0.00000000E+00
  0.00000000E+00  0.00000000E+00  0.00000000E+00
  0.00000000E+00  0.00000000E+00  0.00000000E+00
  0.00000000E+00  0.00000000E+00  0.00000000E+00
  0.00000000E+00  0.00000000E+00  0.00000000E+00
  0.00000000E+00  0.00000000E+00  0.00000000E+00
  0.00000000E+00  0.00000000E+00  0.00000000E+00
  0.00000000E+00  0.00000000E+00  0.00000000E+00
  0.00000000E+00  0.00000000E+00  0.00000000E+00
  0.00000000E+00  0.00000000E+00  0.00000000E+00
  0.00000000E+00  0.00000000E+00  0.00000000E+00
  0.00000000E+00  0.00000000E+00  0.00000000E+00
  0.00000000E+00  0.00000000E+00  0.00000000E+00
  0.00000000E+00  0.00000000E+00  0.00000000E+00
  0.00000000E+00  0.00000000E+00  0.00000000E+00
  0.00000000E+00  0.00000000E+00  0.00000000E+00
  0.00000000E+00  0.00000000E+00  0.00000000E+00
  0.00000000E+00  0.00000000E+00  0.00000000E+00
  0.00000000E+00  0.00000000E+00  0.00000000E+00
  0.00000000E+00  0.00000000E+00  0.00000000E+00
  0.00000000E+00  0.00000000E+00  0.00000000E+00
  0.00000000E+00  0.00000000E+00  0.00000000E+00
  0.00000000E+00  0.00000000E+00  0.00000000E+00
  0.00000000E+00  0.00000000E+00  0.00000000E+00
  0.00000000E+00  0.00000000E+00  0.00000000E+00
  0.00000000E+00  0.00000000E+00  0.00000000E+00
  0.00000000E+00  0.00000000E+00  0.00000000E+00
  0.00000000E+00  0.00000000E+00  0.00000000E+00
  0.00000000E+00  0.00000000E+00  0.00000000E+00
  0.00000000E+00  0.00000000E+00  0.00000000E+00
  0.00000000E+00  0.00000000E+00  0.00000000E+00
  0.00000000E+00  0.00000000E+00  0.00000000E+00
  0.00000000E+00  0.00000000E+00  0.00000000E+00
  0.00000000E+00  0.00000000E+00  0.00000000E+00
  0.00000000E+00  0.00000000E+00  0.00000000E+00
  0.00000000E+00  0.00000000E+00  0.00000000E+00
  0.00000000E+00  0.00000000E+00  0.00000000E+00
  0.00000000E+00  0.00000000E+00  0.00000000E+00
  0.00000000E+00  0.00000000E+00  0.00000000E+00
  0.00000000E+00  0.00000000E+00  0.00000000E+00
  0.00000000E+00  0.00000000E+00  0.00000000E+00
  0.00000000E+00  0.00000000E+00  0.00000000E+00
  0.00000000E+00  0.00000000E+00  0.00000000E+00
  0.00000000E+00  0.00000000E+00  0.00000000E+00
  0.00000000E+00  0.00000000E+00  0.00000000E+00
  0.00000000E+00  0.00000000E+00  0.00000000E+00
  0.00000000E+00  0.00000000E+00  0.00000000E+00
  0.00000000E+00  0.00000000E+00  0.00000000E+00
  0.00000000E+00  0.00000000E+00  0.00000000E+00
  0.00000000E+00  0.00000000E+00  0.00000000E+00
  0.00000000E+00  0.00000000E+00  0.00000000E+00
  0.00000000E+00  0.00000000E+00  0.00000000E+00
  0.00000000E+00  0.00000000E+00  0.00000000E+00
  0.00000000E+00  0.00000000E+00  0.00000000E+00
  0.00000000E+00  0.00000000E+00  0.00000000E+00
  0.00000000E+00  0.00000000E+00  0.00000000E+00
  0.00000000E+00  0.00000000E+00  0.00000000E+00
  0.00000000E+00  0.00000000E+00  0.00000000E+00
  0.00000000E+00  0.00000000E+00  0.00000000E+00
  0.00000000E+00  0.00000000E+00  0.00000000E+00
  0.00000000E+00  0.00000000E+00  0.00000000E+00
  0.00000000E+00  0.00000000E+00  0.00000000E+00
  0.00000000E+00  0.00000000E+00  0.00000000E+00
  0.00000000E+00  0.00000000E+00  0.00000000E+00
  0.00000000E+00  0.00000000E+00  0.00000000E+00
  0.00000000E+00  0.00000000E+00  0.00000000E+00
  0.00000000E+00  0.00000000E+00  0.00000000E+00
  0.00000000E+00  0.00000000E+00  0.00000000E+00
  0.00000000E+00  0.00000000E+00  0.00000000E+00
  0.00000000E+00  0.00000000E+00  0.00000000E+00
  0.00000000E+00  0.00000000E+00  0.00000000E+00
  0.00000000E+00  0.00000000E+00  0.00000000E+00
  0.00000000E+00  0.00000000E+00  0.00000000E+00
  0.00000000E+00  0.00000000E+00  0.00000000E+00
  0.00000000E+00  0.00000000E+00  0.00000000E+00
  0.00000000E+00  0.00000000E+00  0.00000000E+00
  0.00000000E+00  0.00000000E+00  0.00000000E+00
  0.00000000E+00  0.00000000E+00  0.00000000E+00
  0.00000000E+00  0.00000000E+00  0.00000000E+00
  0.00000000E+00  0.00000000E+00  0.00000000E+00
  0.00000000E+00  0.00000000E+00  0.00000000E+00
  0.00000000E+00  0.00000000E+00  0.00000000E+00
  0.00000000E+00  0.00000000E+00  0.00000000E+00
  0.00000000E+00  0.00000000E+00  0.00000000E+00
  0.00000000E+00  0.00000000E+00  0.00000000E+00
  0.00000000E+00  0.00000000E+00  0.00000000E+00
  0.00000000E+00  0.00000000E+00  0.00000000E+00
  0.00000000E+00  0.00000000E+00  0.00000000E+00
  0.00000000E+00  0.00000000E+00  0.00000000E+00
  0.00000000E+00  0.00000000E+00  0.00000000E+00
  0.00000000E+00  0.00000000E+00  0.00000000E+00
  0.00000000E+00  0.00000000E+00  0.00000000E+00
  0.00000000E+00  0.00000000E+00  0.00000000E+00
  0.00000000E+00  0.00000000E+00  0.00000000E+00
  0.00000000E+00  0.00000000E+00  0.00000000E+00
  0.00000000E+00  0.00000000E+00  0.00000000E+00
  0.00000000E+00  0.00000000E+00  0.00000000E+00
  0.00000000E+00  0.00000000E+00  0.00000000E+00
  0.00000000E+00  0.00000000E+00  0.00000000E+00
  0.00000000E+00  0.00000000E+00  0.00000000E+00
  0.00000000E+00  0.00000000E+00  0.00000000E+00
  0.00000000E+00  0.00000000E+00  0.00000000E+00
  0.00000000E+00  0.00000000E+00  0.00000000E+00
  0.00000000E+00  0.00000000E+00  0.00000000E+00
  0.00000000E+00  0.00000000E+00  0.00000000E+00
  0.00000000E+00  0.00000000E+00  0.00000000E+00
  0.00000000E+00  0.00000000E+00  0.00000000E+00
  0.00000000E+00  0.00000000E+00  0.00000000E+00
  0.00000000E+00  0.00000000E+00  0.00000000E+00
  0.00000000E+00  0.00000000E+00  0.00000000E+00
  0.00000000E+00  0.00000000E+00  0.00000000E+00
  0.00000000E+00  0.00000000E+00  0.00000000E+00
  0.00000000E+00  0.00000000E+00  0.00000000E+00
  0.00000000E+00  0.00000000E+00  0.00000000E+00
  0.00000000E+00  0.00000000E+00  0.00000000E+00
  0.00000000E+00  0.00000000E+00  0.00000000E+00
  0.00000000E+00  0.00000000E+00  0.00000000E+00
  0.00000000E+00  0.00000000E+00  0.00000000E+00
  0.00000000E+00  0.00000000E+00  0.00000000E+00
  0.00000000E+00  0.00000000E+00  0.00000000E+00
  0.00000000E+00  0.00000000E+00  0.00000000E+00
  0.00000000E+00  0.00000000E+00  0.00000000E+00
  0.00000000E+00  0.00000000E+00  0.00000000E+00
  0.00000000E+00  0.00000000E+00  0.00000000E+00
  0.00000000E+00  0.00000000E+00  0.00000000E+00
  0.00000000E+00  0.00000000E+00  0.00000000E+00
  0.00000000E+00  0.00000000E+00  0.00000000E+00
  0.00000000E+00  0.00000000E+00  0.00000000E+00
  0.00000000E+00  0.00000000E+00  0.00000000E+00
  0.00000000E+00  0.00000000E+00  0.00000000E+00
  0.00000000E+00  0.00000000E+00  0.00000000E+00
  0.00000000E+00  0.00000000E+00  0.00000000E+00
  0.00000000E+00  0.00000000E+00  0.00000000E+00
  0.00000000E+00  0.00000000E+00  0.00000000E+00
  0.00000000E+00  0.00000000E+00  0.00000000E+00
  0.00000000E+00  0.00000000E+00  0.00000000E+00
  0.00000000E+00  0.00000000E+00  0.00000000E+00
  0.00000000E+00  0.00000000E+00  0.00000000E+00
  0.00000000E+00  0.00000000E+00  0.00000000E+00
  0.00000000E+00  0.00000000E+00  0.00000000E+00
  0.00000000E+00  0.00000000E+00  0.00000000E+00
  0.00000000E+00  0.00000000E+00  0.00000000E+00
  0.00000000E+00  0.00000000E+00  0.00000000E+00
  0.00000000E+00  0.00000000E+00  0.00000000E+00
  0.00000000E+00  0.00000000E+00  0.00000000E+00
  0.00000000E+00  0.00000000E+00  0.00000000E+00
  0.00000000E+00  0.00000000E+00  0.00000000E+00
  0.00000000E+00  0.00000000E+00  0.00000000E+00
  0.00000000E+00  0.00000000E+00  0.00000000E+00
  0.00000000E+00  0.00000000E+00  0.00000000E+00
  0.00000000E+00  0.00000000E+00  0.00000000E+00
  0.00000000E+00  0.00000000E+00  0.00000000E+00
  0.00000000E+00  0.00000000E+00  0.00000000E+00
  0.00000000E+00  0.00000000E+00  0.00000000E+00
  0.00000000E+00  0.00000000E+00  0.00000000E+00
  0.00000000E+00  0.00000000E+00  0.00000000E+00
  0.00000000E+00  0.00000000E+00  0.00000000E+00
  0.00000000E+00  0.00000000E+00  0.00000000E+00
  0.00000000E+00  0.00000000E+00  0.00000000E+00
  0.00000000E+00  0.00000000E+00  0.00000000E+00
  0.00000000E+00  0.00000000E+00  0.00000000E+00
  0.00000000E+00  0.00000000E+00  0.00000000E+00
  0.00000000E+00  0.00000000E+00  0.00000000E+00
  0.00000000E+00  0.00000000E+00  0.00000000E+00
  0.00000000E+00  0.00000000E+00  0.00000000E+00
  0.00000000E+00  0.00000000E+00  0.00000000E+00
  0.00000000E+00  0.00000000E+00  0.00000000E+00
  0.00000000E+00  0.00000000E+00  0.00000000E+00
  0.00000000E+00  0.00000000E+00  0.00000000E+00
  0.00000000E+00  0.00000000E+00  0.00000000E+00
  0.00000000E+00  0.00000000E+00  0.00000000E+00
  0.00000000E+00  0.00000000E+00  0.00000000E+00
  0.00000000E+00  0.00000000E+00  0.00000000E+00
  0.00000000E+00  0.00000000E+00  0.00000000E+00
  0.00000000E+00  0.00000000E+00  0.00000000E+00
  0.00000000E+00  0.00000000E+00  0.00000000E+00
  0.00000000E+00  0.00000000E+00  0.00000000E+00
  0.00000000E+00  0.00000000E+00  0.00000000E+00
  0.00000000E+00  0.00000000E+00  0.00000000E+00
  0.00000000E+00  0.00000000E+00  0.00000000E+00
  0.00000000E+00  0.00000000E+00  0.00000000E+00
  0.00000000E+00  0.00000000E+00  0.00000000E+00
  0.00000000E+00  0.00000000E+00  0.00000000E+00
  0.00000000E+00  0.00000000E+00  0.00000000E+00
  0.00000000E+00  0.00000000E+00  0.00000000E+00
  0.00000000E+00  0.00000000E+00  0.00000000E+00
  0.00000000E+00  0.00000000E+00  0.00000000E+00
  0.00000000E+00  0.00000000E+00  0.00000000E+00
  0.00000000E+00  0.00000000E+00  0.00000000E+00
  0.00000000E+00  0.00000000E+00  0.00000000E+00
  0.00000000E+00  0.00000000E+00  0.00000000E+00
  0.00000000E+00  0.00000000E+00  0.00000000E+00
  0.00000000E+00  0.00000000E+00  0.00000000E+00
  0.00000000E+00  0.00000000E+00  0.00000000E+00
  0.00000000E+00  0.00000000E+00  0.00000000E+00
  0.00000000E+00  0.00000000E+00  0.00000000E+00
  0.00000000E+00  0.00000000E+00  0.00000000E+00
  0.00000000E+00  0.00000000E+00  0.00000000E+00
  0.00000000E+00  0.00000000E+00  0.00000000E+00
  0.00000000E+00  0.00000000E+00  0.00000000E+00
  0.00000000E+00  0.00000000E+00  0.00000000E+00
  0.00000000E+00  0.00000000E+00  0.00000000E+00
  0.00000000E+00  0.00000000E+00  0.00000000E+00
  0.00000000E+00  0.00000000E+00  0.00000000E+00
  0.00000000E+00  0.00000000E+00  0.00000000E+00
  0.00000000E+00  0.00000000E+00  0.00000000E+00
  0.00000000E+00  0.00000000E+00  0.00000000E+00
  0.00000000E+00  0.00000000E+00  0.00000000E+00
  0.00000000E+00  0.00000000E+00  0.00000000E+00
  0.00000000E+00  0.00000000E+00  0.00000000E+00
  0.00000000E+00  0.00000000E+00  0.00000000E+00
  0.00000000E+00  0.00000000E+00  0.00000000E+00
  0.00000000E+00  0.00000000E+00  0.00000000E+00
  0.00000000E+00  0.00000000E+00  0.00000000E+00
  0.00000000E+00  0.00000000E+00  0.00000000E+00
  0.00000000E+00  0.00000000E+00  0.00000000E+00
  0.00000000E+00  0.00000000E+00  0.00000000E+00
  0.00000000E+00  0.00000000E+00  0.00000000E+00
