New structure                           
    1.000000000000000     
    14.5000000000000000    0.0000000000000000    0.0000000000000000
     0.0000000000000000   14.5000000000000000    0.0000000000000000
     0.0000000000000000    0.0000000000000000   14.5000000000000000
   O 
     4
Direct
  0.0000000000000000  0.0000000000000000  0.0000000000000000
  0.0827586206896527  0.0000000000000000  0.0000000000000000
  0.0344827586206904  0.9586206896551701  0.1034482758620712
  0.0344827586206904  0.0413793103448299  0.1034482758620712
 
  0.00000000E+00  0.00000000E+00  0.00000000E+00
  0.00000000E+00  0.00000000E+00  0.00000000E+00
  0.00000000E+00  0.00000000E+00  0.00000000E+00
  0.00000000E+00  0.00000000E+00  0.00000000E+00
