Al  O                                   
    1.000000000000000     
    17.1805725098000011    0.0000000000000000    0.0000000000000000
     8.5902872455000008   14.8788116730999995    0.0000000000000000
     0.0000000000000000    0.0000000000000000   37.5999999999999943
   Al   O 
   252   128
Direct
  0.4445415536125056  0.4445415836125010  0.0671240989592538
  0.4440197451224996  0.7779901274387497  0.0675603095657327
  0.4445415236125032  0.1109168927749959  0.0671240989592538
  0.7779900674387519  0.4440197751224950  0.0675603095657327
  0.7779901274387497  0.7779901274387497  0.0675603095657327
  0.7786278022569227  0.1106861283715393  0.0672845274912073
  0.1109167737749967  0.4445415836125010  0.0671240989592538
  0.1106861283715393  0.7786278622569206  0.0672845274912073
  0.1106860093715401  0.1106861283715393  0.0672845274912073
  0.5555000753033833  0.5555001353033812  0.1284944849403740
  0.5555000753033833  0.8889997893932292  0.1284944849403740
  0.5557239035525494  0.2221381372237255  0.1283269218458669
  0.8889997893932292  0.5555001353033812  0.1284944849403740
  0.8893962956567329  0.8893963556567308  0.1288819372337872
  0.8893963556567308  0.2212074086865344  0.1288819372337872
  0.2221380182237263  0.5557239635525473  0.1283269218458669
  0.2212072896865352  0.8893963556567308  0.1288819372337872
  0.2221380182237263  0.2221381372237255  0.1283269218458669
  0.6666666269999979  0.6666666269999979  0.1878175136841868
  0.6654527767844279  0.0011812356243786  0.1873660242578261
  0.6654527167844230  0.3333659285911987  0.1873660242578261
  0.0011812356243786  0.6654527167844230  0.1873660242578261
  0.0000000000000000 -0.0000000000000000  0.1875509412391625
  0.0011812356243786  0.3333659285911987  0.1873660242578261
  0.3333660475911979  0.6654527167844230  0.1873660242578261
  0.3333660475911979  0.0011812356243786  0.1873660242578261
  0.3333332540000029  0.3333332540000029  0.1868426323440999
  0.7780752447337538  0.7780752447337538  0.2441913695857851
  0.7782748424087800  0.1108626082956107  0.2457914208820769
  0.7780752447337538  0.4438495105324927  0.2441913695857851
  0.1108626082956107  0.7782749024087778  0.2457914208820769
  0.1108624892956115  0.1108626082956107  0.2457914208820769
  0.1106790304969531  0.4446604847515271  0.2460960750842104
  0.4438495105324927  0.7780752447337538  0.2441913695857851
  0.4446603657515208  0.1106790304969531  0.2460960750842104
  0.4446604847515271  0.4446604847515271  0.2460960750842104
  0.8881323433253698  0.8881324033253677  0.3049328115224114
  0.8881324033253677  0.2237353133492611  0.3049328115224114
  0.8894982738938586  0.5552508630530670  0.3050346918656004
  0.2237351943492619  0.8881324033253677  0.3049328115224114
  0.2250142290516320  0.2250143480516311  0.3029943435137135
  0.2250141100516328  0.5499715418967359  0.3029943435137135
  0.5552507440530678  0.8894983338938565  0.3050346918656004
  0.5499714228967367  0.2250143480516311  0.3029943435137135
  0.5552508630530670  0.5552508630530670  0.3050346918656004
  0.0000000000000000 -0.0000000000000000  0.3666450932744377
 -0.0027041406802071  0.3354921338997318  0.3646888030101332
 -0.0027041406802071  0.6672118877804761  0.3646888030101332
  0.3354922528997309 -0.0027041406802071  0.3646888030101332
  0.3333332540000029  0.3333332540000029  0.3735835100670116
  0.3354921338997318  0.6672118877804761  0.3646888030101332
  0.6672118877804761 -0.0027041406802071  0.3646888030101332
  0.6672120067804753  0.3354921338997318  0.3646888030101332
  0.6666667459999971  0.6666666269999979  0.3563819019819177
  0.1128181414805849  0.1128182604805841  0.4163403916979901
  0.1222930114436798  0.4388534942781638  0.4356790461043340
  0.1128181414805849  0.7743635980388309  0.4163403916979901
  0.4388533752781575  0.1222930114436798  0.4356790461043340
  0.4388534942781638  0.4388534942781638  0.4356790461043340
  0.4719510223166262  0.7640244888416867  0.4361728944001219
  0.7743635980388309  0.1128182604805841  0.4163403916979901
  0.7640246078416859  0.4719510223166262  0.4361728944001219
  0.7640243698416875  0.7640244888416867  0.4361728944001219
  0.2779900974387548  0.2779901274387502  0.0675603095657327
  0.2786278322569255  0.6106861283715388  0.0672845274912073
  0.2779901274387502  0.9440198051224975  0.0675603095657327
  0.6106860683715409  0.2786278622569209  0.0672845274912073
  0.6106860683715409  0.6106861283715388  0.0672845274912073
  0.6109168327749980  0.9445416136125038  0.0671240989592538
  0.9440197451224996  0.2779901274387502  0.0675603095657327
  0.9445416136125038  0.6109168927749958  0.0671240989592538
  0.9445415536125059  0.9445416136125038  0.0671240989592538
  0.3893963556567310  0.3893963556567310  0.1288819372337872
  0.3893963556567310  0.7212072896865346  0.1288819372337872
  0.3889998183932348  0.0555001353033810  0.1284944849403740
  0.7212072896865346  0.3893963556567310  0.1288819372337872
  0.7221380182237264  0.7221380182237264  0.1283269218458669
  0.7221380782237242  0.0557239635525473  0.1283269218458669
  0.0555001353033810  0.3889997893932288  0.1284944849403740
  0.0557239635525473  0.7221380182237264  0.1283269218458669
  0.0555000163033818  0.0555001353033810  0.1284944849403740
  0.5000000000000000  0.5000000000000000  0.1875509412391625
  0.5011812956243764  0.8333659875911930  0.1873660242578261
  0.5011812056243761  0.1654528357844226  0.1873660242578261
  0.8333659875911930  0.5011812356243786  0.1873660242578261
  0.8333333730000021  0.8333333129999971  0.1868426323440999
  0.8333659875911930  0.1654528357844226  0.1873660242578261
  0.1654527167844234  0.5011812356243786  0.1873660242578261
  0.1654527167844234  0.8333659875911930  0.1873660242578261
  0.1666666269999979  0.1666667459999971  0.1878175136841868
  0.6108625482956128  0.6108626082956107  0.2457914208820769
  0.6106789704969550  0.9446605447515246  0.2460960750842104
  0.6108626082956107  0.2782749024087778  0.2457914208820769
  0.9446605447515246  0.6106790304969528  0.2460960750842104
  0.9446604847515268  0.9446605447515246  0.2460960750842104
  0.9438495105324926  0.2780752447337537  0.2441913695857851
  0.2782747834087786  0.6108626082956107  0.2457914208820769
  0.2780752447337537  0.9438495705324904  0.2441913695857851
  0.2780752447337537  0.2780752447337537  0.2441913695857851
  0.7250142290516320  0.7250142290516320  0.3029943435137135
  0.7250142890516299  0.0499715418967361  0.3029943435137135
  0.7237351943492618  0.3881323433253695  0.3049328115224114
  0.0499715418967361  0.7250142290516320  0.3029943435137135
  0.0552507440530680  0.0552508630530672  0.3050346918656004
  0.0552508630530672  0.3894982738938584  0.3050346918656004
  0.3881324623253687  0.7237351943492618  0.3049328115224114
  0.3894982738938584  0.0552508630530672  0.3050346918656004
  0.3881324623253687  0.3881323433253695  0.3049328115224114
  0.8333333730000021  0.8333333129999971  0.3735835100670116
  0.8354921928997261  0.1672120067804754  0.3646888030101332
  0.8354921338997319  0.4972958593197930  0.3646888030101332
  0.1672118877804762  0.8354921928997261  0.3646888030101332
  0.1666666269999979  0.1666667459999971  0.3563819019819177
  0.1672118877804762  0.4972958593197930  0.3646888030101332
  0.4972958593197930  0.8354921928997261  0.3646888030101332
  0.4972958593197930  0.1672120067804754  0.3646888030101332
  0.5000001189999992  0.5000000000000000  0.3666450932744377
  0.9388534942781638  0.9388535542781616  0.4356790461043340
  0.9719510223166263  0.2640244888416868  0.4361728944001219
  0.9388535542781616  0.6222928924436804  0.4356790461043340
  0.2640244888416868  0.9719510823166243  0.4361728944001219
  0.2640244888416868  0.2640244888416868  0.4361728944001219
  0.2743635980388307  0.6128181414805850  0.4163403916979901
  0.6222930114436795  0.9388535542781616  0.4356790461043340
  0.6128183794805834  0.2743635980388307  0.4163403916979901
  0.6128181414805851  0.6128181414805850  0.4163403916979901
  0.2779900974387548  0.4440197751224950  0.0675603095657327
  0.2779900674387523  0.7779901274387497  0.0675603095657327
  0.2786278322569255  0.1106861283715393  0.0672845274912073
  0.6109168327749980  0.4445415836125010  0.0671240989592538
  0.6106860093715396  0.7786278622569206  0.0672845274912073
  0.6106860683715409  0.1106861283715393  0.0672845274912073
  0.9445416136125038  0.4445415836125010  0.0671240989592538
  0.9440197451224996  0.7779901274387497  0.0675603095657327
  0.9445416136125038  0.1109168927749959  0.0671240989592538
  0.3889997593932334  0.5555001353033812  0.1284944849403740
  0.3893963256567356  0.8893963556567308  0.1288819372337872
  0.3893962656567306  0.2212074086865344  0.1288819372337872
  0.7221379582237214  0.5557239635525473  0.1283269218458669
  0.7212072896865346  0.8893963556567308  0.1288819372337872
  0.7221379582237214  0.2221381372237255  0.1283269218458669
  0.0555000163033818  0.5555001353033812  0.1284944849403740
  0.0555001353033810  0.8889997893932292  0.1284944849403740
  0.0557238445525482  0.2221381372237255  0.1283269218458669
  0.5011812356243786  0.6654527167844230  0.1873660242578261
  0.4999999400000021 -0.0000000000000000  0.1875509412391625
  0.5011812356243786  0.3333659285911987  0.1873660242578261
  0.8333660475911979  0.6654527167844230  0.1873660242578261
  0.8333659875911930  0.0011812356243786  0.1873660242578261
  0.8333333730000021  0.3333332540000029  0.1868426323440999
  0.1666667459999971  0.6666666269999979  0.1878175136841868
  0.1654527167844234  0.0011812356243786  0.1873660242578261
  0.1654528357844226  0.3333659285911987  0.1873660242578261
  0.6108624892956115  0.7782749024087778  0.2457914208820769
  0.6108625482956128  0.1108626082956107  0.2457914208820769
  0.6106789114969536  0.4446604847515271  0.2460960750842104
  0.9438495105324926  0.7780752447337538  0.2441913695857851
  0.9446605447515246  0.1106790304969531  0.2460960750842104
  0.9446604847515268  0.4446604847515271  0.2460960750842104
  0.2780752447337537  0.7780752447337538  0.2441913695857851
  0.2782749024087778  0.1108626082956107  0.2457914208820769
  0.2780751257337545  0.4438495105324927  0.2441913695857851
  0.7237351943492618  0.8881324033253677  0.3049328115224114
  0.7250141690516271  0.2250143480516311  0.3029943435137135
  0.7250142290516320  0.5499715418967359  0.3029943435137135
  0.0552508630530672  0.8894983338938565  0.3050346918656004
  0.0499714228967369  0.2250143480516311  0.3029943435137135
  0.0552508630530672  0.5552508630530670  0.3050346918656004
  0.3881324623253687  0.8881324033253677  0.3049328115224114
  0.3881322243253703  0.2237353133492611  0.3049328115224114
  0.3894982738938584  0.5552508630530670  0.3050346918656004
  0.8354921928997261 -0.0027041406802071  0.3646888030101332
  0.8333333730000021  0.3333332540000029  0.3735835100670116
  0.8354921928997261  0.6672118877804761  0.3646888030101332
  0.1672118877804762 -0.0027041406802071  0.3646888030101332
  0.1672120067804754  0.3354921338997318  0.3646888030101332
  0.1666666269999979  0.6666666269999979  0.3563819019819177
  0.4999998810000008 -0.0000000000000000  0.3666450932744377
  0.4972958593197930  0.3354921338997318  0.3646888030101332
  0.4972958593197930  0.6672118877804761  0.3646888030101332
  0.9388535542781616  0.1222930114436798  0.4356790461043340
  0.9388534942781638  0.4388534942781638  0.4356790461043340
  0.9719510823166242  0.7640244888416867  0.4361728944001219
  0.2743635980388307  0.1128182604805841  0.4163403916979901
  0.2640243698416876  0.4719510223166262  0.4361728944001219
  0.2640243698416876  0.7640244888416867  0.4361728944001219
  0.6128181414805851  0.1128182604805841  0.4163403916979901
  0.6222930114436795  0.4388534942781638  0.4356790461043340
  0.6128182604805842  0.7743635980388309  0.4163403916979901
  0.4440197751224950  0.2779901274387502  0.0675603095657327
  0.4445415836125010  0.6109168927749958  0.0671240989592538
  0.4445415836125010  0.9445416136125038  0.0671240989592538
  0.7779901274387497  0.2779901274387502  0.0675603095657327
  0.7786278022569227  0.6106861283715388  0.0672845274912073
  0.7779901274387497  0.9440198051224975  0.0675603095657327
  0.1106861283715393  0.2786278622569209  0.0672845274912073
  0.1106860093715401  0.6106861283715388  0.0672845274912073
  0.1109167737749967  0.9445416136125038  0.0671240989592538
  0.5555001353033812  0.3889997893932288  0.1284944849403740
  0.5557239635525473  0.7221380182237264  0.1283269218458669
  0.5555000753033833  0.0555001353033810  0.1284944849403740
  0.8893962956567329  0.3893963556567310  0.1288819372337872
  0.8893964146567321  0.7212072896865346  0.1288819372337872
  0.8889997893932292  0.0555001353033810  0.1284944849403740
  0.2212072896865352  0.3893963556567310  0.1288819372337872
  0.2221380182237263  0.7221380182237264  0.1283269218458669
  0.2221380182237263  0.0557239635525473  0.1283269218458669
  0.6654527767844279  0.5011812356243786  0.1873660242578261
  0.6654527167844230  0.8333659875911930  0.1873660242578261
  0.6666666870000029  0.1666667459999971  0.1878175136841868
  0.0000000000000000  0.5000000000000000  0.1875509412391625
  0.0011812356243786  0.8333659875911930  0.1873660242578261
  0.0011812356243786  0.1654528357844226  0.1873660242578261
  0.3333659285911987  0.5011812356243786  0.1873660242578261
  0.3333333730000021  0.8333333129999971  0.1868426323440999
  0.3333659285911987  0.1654528357844226  0.1873660242578261
  0.7782748424087800  0.6108626082956107  0.2457914208820769
  0.7780752447337538  0.9438495705324904  0.2441913695857851
  0.7780752447337538  0.2780752447337537  0.2441913695857851
  0.1108624892956115  0.6108626082956107  0.2457914208820769
  0.1106789114969539  0.9446605447515246  0.2460960750842104
  0.1108626082956107  0.2782749024087778  0.2457914208820769
  0.4446604847515271  0.6106790304969528  0.2460960750842104
  0.4446604847515271  0.9446605447515246  0.2460960750842104
  0.4438496295324919  0.2780752447337537  0.2441913695857851
  0.8881324623253690  0.7237351943492618  0.3049328115224114
  0.8894983338938565  0.0552508630530672  0.3050346918656004
  0.8881323433253698  0.3881323433253695  0.3049328115224114
  0.2250142290516320  0.7250142290516320  0.3029943435137135
  0.2250142290516320  0.0499715418967361  0.3029943435137135
  0.2237351943492619  0.3881323433253695  0.3049328115224114
  0.5499714228967367  0.7250142290516320  0.3029943435137135
  0.5552508630530670  0.0552508630530672  0.3050346918656004
  0.5552509820530733  0.3894982738938584  0.3050346918656004
 -0.0027041406802071  0.8354921928997261  0.3646888030101332
 -0.0027041406802071  0.1672120067804754  0.3646888030101332
  0.0000000000000000  0.5000000000000000  0.3666450932744377
  0.3333333730000021  0.8333333129999971  0.3735835100670116
  0.3354921338997318  0.1672120067804754  0.3646888030101332
  0.3354922528997309  0.4972958593197930  0.3646888030101332
  0.6672120067804753  0.8354921928997261  0.3646888030101332
  0.6666667459999971  0.1666667459999971  0.3563819019819177
  0.6672118877804761  0.4972958593197930  0.3646888030101332
  0.1222928924436806  0.9388535542781616  0.4356790461043340
  0.1128182604805841  0.2743635980388307  0.4163403916979901
  0.1128182604805841  0.6128181414805850  0.4163403916979901
  0.4388534942781638  0.9388535542781616  0.4356790461043340
  0.4719511413166254  0.2640244888416868  0.4361728944001219
  0.4388536132781630  0.6222928924436804  0.4356790461043340
  0.7640246078416859  0.9719510823166242  0.4361728944001219
  0.7640244888416867  0.2640244888416868  0.4361728944001219
  0.7743635980388309  0.6128181414805850  0.4163403916979901
  0.0000000000000000 -0.0000000000000000  0.4444870156810052
  0.0000000000000000 -0.0000000000000000  0.4818691040369190
  0.0064675861551781  0.1257161658692257  0.4768707681414402
 -0.0075498956030959  0.1253482756912904  0.5106668003046435
  0.0060784063305501  0.2469607968347249  0.4883068352878953
 -0.0056306521901665  0.2528153260950831  0.5214316924344038
  0.0064675861551781  0.3678162479755962  0.4768707681414403
 -0.0075498956030959  0.3822016199118053  0.5106668003046435
  0.0000000000000000  0.5000000000000000  0.4444870156810052
  0.0000000000000000  0.5000000000000000  0.4818691040369190
  0.0064675861551781  0.6257161658692253  0.4768707681414402
 -0.0075498956030959  0.6253482756912901  0.5106668003046435
  0.0060784063305501  0.7469607968347249  0.4883068352878953
 -0.0056306521901665  0.7528153260950831  0.5214316924344038
  0.0064675861551781  0.8678162479755966  0.4768707681414403
 -0.0075498956030959  0.8822016199118053  0.5106668003046435
  0.1257161658692257  0.0064675861551781  0.4768707681414403
  0.1253482756912904 -0.0075498956030959  0.5106668003046435
  0.1284282795515549  0.1284282795515549  0.4925798695486985
  0.1209588086574445  0.1209588086574445  0.5247666125345877
  0.1284282795515549  0.2431434408968902  0.4925798695486985
  0.1209588086574445  0.2580823826851110  0.5247666125345877
  0.1257161658692257  0.3678162479755962  0.4768707681414402
  0.1253482756912904  0.3822016199118053  0.5106668003046435
  0.1257161658692257  0.5064675861551777  0.4768707681414403
  0.1253482756912904  0.4924501043969044  0.5106668003046435
  0.1284282795515549  0.6284282795515549  0.4925798695486985
  0.1209588086574445  0.6209588086574446  0.5247666125345877
  0.1284282795515549  0.7431434408968906  0.4925798695486985
  0.1209588086574445  0.7580823826851113  0.5247666125345877
  0.1257161658692257  0.8678162479755966  0.4768707681414402
  0.1253482756912904  0.8822016199118053  0.5106668003046435
  0.2469607968347249  0.0060784063305501  0.4883068352878953
  0.2528153260950831 -0.0056306521901665  0.5214316924344038
  0.2431434408968902  0.1284282795515549  0.4925798695486985
  0.2580823826851110  0.1209588086574445  0.5247666125345877
  0.2469607968347249  0.2469607968347249  0.4883068352878953
  0.2528153260950832  0.2528153260950831  0.5214316924344038
  0.2416875496648820  0.3791562251675590  0.4506658849508761
  0.2510440568948622  0.3744779715525690  0.4897527494704121
  0.2469607968347249  0.5060784063305501  0.4883068352878953
  0.2528153260950831  0.4943693478098336  0.5214316924344038
  0.2431434408968902  0.6284282795515549  0.4925798695486985
  0.2580823826851110  0.6209588086574446  0.5247666125345877
  0.2469607968347249  0.7469607968347249  0.4883068352878953
  0.2528153260950832  0.7528153260950831  0.5214316924344038
  0.2416875496648820  0.8791562251675590  0.4506658849508761
  0.2510440568948622  0.8744779715525691  0.4897527494704121
  0.3678162479755962  0.0064675861551781  0.4768707681414402
  0.3822016199118053 -0.0075498956030959  0.5106668003046435
  0.3678162479755962  0.1257161658692257  0.4768707681414402
  0.3822016199118053  0.1253482756912904  0.5106668003046435
  0.3791562251675590  0.2416875496648820  0.4506658849508761
  0.3744779715525690  0.2510440568948622  0.4897527494704121
  0.3791562251675590  0.3791562251675590  0.4506658849508761
  0.3744779715525690  0.3744779715525690  0.4897527494704121
  0.3678162479755962  0.5064675861551778  0.4768707681414402
  0.3822016199118053  0.4924501043969044  0.5106668003046435
  0.3678162479755962  0.6257161658692253  0.4768707681414402
  0.3822016199118054  0.6253482756912901  0.5106668003046435
  0.3791562251675590  0.7416875496648819  0.4506658849508761
  0.3744779715525690  0.7510440568948621  0.4897527494704121
  0.3791562251675590  0.8791562251675590  0.4506658849508761
  0.3744779715525690  0.8744779715525691  0.4897527494704121
  0.5000000000000000 -0.0000000000000000  0.4444870156810052
  0.5000000000000000 -0.0000000000000000  0.4818691040369190
  0.5064675861551777  0.1257161658692257  0.4768707681414402
  0.4924501043969044  0.1253482756912904  0.5106668003046435
  0.5060784063305501  0.2469607968347249  0.4883068352878953
  0.4943693478098336  0.2528153260950831  0.5214316924344038
  0.5064675861551778  0.3678162479755962  0.4768707681414403
  0.4924501043969044  0.3822016199118053  0.5106668003046435
  0.5000000000000000  0.5000000000000000  0.4444870156810052
  0.5000000000000000  0.5000000000000000  0.4818691040369190
  0.5064675861551777  0.6257161658692253  0.4768707681414402
  0.4924501043969044  0.6253482756912901  0.5106668003046435
  0.5060784063305501  0.7469607968347249  0.4883068352878953
  0.4943693478098336  0.7528153260950831  0.5214316924344038
  0.5064675861551778  0.8678162479755966  0.4768707681414403
  0.4924501043969044  0.8822016199118053  0.5106668003046435
  0.6257161658692253  0.0064675861551781  0.4768707681414403
  0.6253482756912901 -0.0075498956030959  0.5106668003046435
  0.6284282795515549  0.1284282795515549  0.4925798695486985
  0.6209588086574446  0.1209588086574445  0.5247666125345877
  0.6284282795515549  0.2431434408968902  0.4925798695486985
  0.6209588086574446  0.2580823826851110  0.5247666125345877
  0.6257161658692253  0.3678162479755962  0.4768707681414402
  0.6253482756912901  0.3822016199118053  0.5106668003046435
  0.6257161658692253  0.5064675861551777  0.4768707681414403
  0.6253482756912901  0.4924501043969044  0.5106668003046435
  0.6284282795515549  0.6284282795515549  0.4925798695486985
  0.6209588086574446  0.6209588086574446  0.5247666125345877
  0.6284282795515549  0.7431434408968906  0.4925798695486985
  0.6209588086574446  0.7580823826851113  0.5247666125345877
  0.6257161658692253  0.8678162479755966  0.4768707681414402
  0.6253482756912901  0.8822016199118053  0.5106668003046435
  0.7469607968347249  0.0060784063305501  0.4883068352878953
  0.7528153260950831 -0.0056306521901665  0.5214316924344038
  0.7431434408968906  0.1284282795515549  0.4925798695486985
  0.7580823826851113  0.1209588086574445  0.5247666125345877
  0.7469607968347249  0.2469607968347249  0.4883068352878953
  0.7528153260950831  0.2528153260950831  0.5214316924344038
  0.7416875496648819  0.3791562251675590  0.4506658849508761
  0.7510440568948621  0.3744779715525690  0.4897527494704121
  0.7469607968347249  0.5060784063305501  0.4883068352878953
  0.7528153260950831  0.4943693478098336  0.5214316924344038
  0.7431434408968906  0.6284282795515549  0.4925798695486985
  0.7580823826851113  0.6209588086574446  0.5247666125345877
  0.7469607968347249  0.7469607968347249  0.4883068352878953
  0.7528153260950831  0.7528153260950831  0.5214316924344038
  0.7416875496648819  0.8791562251675590  0.4506658849508761
  0.7510440568948621  0.8744779715525691  0.4897527494704121
  0.8678162479755966  0.0064675861551781  0.4768707681414402
  0.8822016199118053 -0.0075498956030959  0.5106668003046435
  0.8678162479755966  0.1257161658692257  0.4768707681414402
  0.8822016199118053  0.1253482756912904  0.5106668003046435
  0.8791562251675590  0.2416875496648820  0.4506658849508761
  0.8744779715525691  0.2510440568948622  0.4897527494704121
  0.8791562251675590  0.3791562251675590  0.4506658849508761
  0.8744779715525691  0.3744779715525690  0.4897527494704121
  0.8678162479755966  0.5064675861551778  0.4768707681414402
  0.8822016199118053  0.4924501043969044  0.5106668003046435
  0.8678162479755966  0.6257161658692253  0.4768707681414402
  0.8822016199118053  0.6253482756912901  0.5106668003046435
  0.8791562251675590  0.7416875496648819  0.4506658849508761
  0.8744779715525691  0.7510440568948621  0.4897527494704121
  0.8791562251675590  0.8791562251675590  0.4506658849508761
  0.8744779715525691  0.8744779715525691  0.4897527494704121
 
  0.00000000E+00  0.00000000E+00  0.00000000E+00
  0.00000000E+00  0.00000000E+00  0.00000000E+00
  0.00000000E+00  0.00000000E+00  0.00000000E+00
  0.00000000E+00  0.00000000E+00  0.00000000E+00
  0.00000000E+00  0.00000000E+00  0.00000000E+00
  0.00000000E+00  0.00000000E+00  0.00000000E+00
  0.00000000E+00  0.00000000E+00  0.00000000E+00
  0.00000000E+00  0.00000000E+00  0.00000000E+00
  0.00000000E+00  0.00000000E+00  0.00000000E+00
  0.00000000E+00  0.00000000E+00  0.00000000E+00
  0.00000000E+00  0.00000000E+00  0.00000000E+00
  0.00000000E+00  0.00000000E+00  0.00000000E+00
  0.00000000E+00  0.00000000E+00  0.00000000E+00
  0.00000000E+00  0.00000000E+00  0.00000000E+00
  0.00000000E+00  0.00000000E+00  0.00000000E+00
  0.00000000E+00  0.00000000E+00  0.00000000E+00
  0.00000000E+00  0.00000000E+00  0.00000000E+00
  0.00000000E+00  0.00000000E+00  0.00000000E+00
  0.00000000E+00  0.00000000E+00  0.00000000E+00
  0.00000000E+00  0.00000000E+00  0.00000000E+00
  0.00000000E+00  0.00000000E+00  0.00000000E+00
  0.00000000E+00  0.00000000E+00  0.00000000E+00
  0.00000000E+00  0.00000000E+00  0.00000000E+00
  0.00000000E+00  0.00000000E+00  0.00000000E+00
  0.00000000E+00  0.00000000E+00  0.00000000E+00
  0.00000000E+00  0.00000000E+00  0.00000000E+00
  0.00000000E+00  0.00000000E+00  0.00000000E+00
  0.00000000E+00  0.00000000E+00  0.00000000E+00
  0.00000000E+00  0.00000000E+00  0.00000000E+00
  0.00000000E+00  0.00000000E+00  0.00000000E+00
  0.00000000E+00  0.00000000E+00  0.00000000E+00
  0.00000000E+00  0.00000000E+00  0.00000000E+00
  0.00000000E+00  0.00000000E+00  0.00000000E+00
  0.00000000E+00  0.00000000E+00  0.00000000E+00
  0.00000000E+00  0.00000000E+00  0.00000000E+00
  0.00000000E+00  0.00000000E+00  0.00000000E+00
  0.00000000E+00  0.00000000E+00  0.00000000E+00
  0.00000000E+00  0.00000000E+00  0.00000000E+00
  0.00000000E+00  0.00000000E+00  0.00000000E+00
  0.00000000E+00  0.00000000E+00  0.00000000E+00
  0.00000000E+00  0.00000000E+00  0.00000000E+00
  0.00000000E+00  0.00000000E+00  0.00000000E+00
  0.00000000E+00  0.00000000E+00  0.00000000E+00
  0.00000000E+00  0.00000000E+00  0.00000000E+00
  0.00000000E+00  0.00000000E+00  0.00000000E+00
  0.00000000E+00  0.00000000E+00  0.00000000E+00
  0.00000000E+00  0.00000000E+00  0.00000000E+00
  0.00000000E+00  0.00000000E+00  0.00000000E+00
  0.00000000E+00  0.00000000E+00  0.00000000E+00
  0.00000000E+00  0.00000000E+00  0.00000000E+00
  0.00000000E+00  0.00000000E+00  0.00000000E+00
  0.00000000E+00  0.00000000E+00  0.00000000E+00
  0.00000000E+00  0.00000000E+00  0.00000000E+00
  0.00000000E+00  0.00000000E+00  0.00000000E+00
  0.00000000E+00  0.00000000E+00  0.00000000E+00
  0.00000000E+00  0.00000000E+00  0.00000000E+00
  0.00000000E+00  0.00000000E+00  0.00000000E+00
  0.00000000E+00  0.00000000E+00  0.00000000E+00
  0.00000000E+00  0.00000000E+00  0.00000000E+00
  0.00000000E+00  0.00000000E+00  0.00000000E+00
  0.00000000E+00  0.00000000E+00  0.00000000E+00
  0.00000000E+00  0.00000000E+00  0.00000000E+00
  0.00000000E+00  0.00000000E+00  0.00000000E+00
  0.00000000E+00  0.00000000E+00  0.00000000E+00
  0.00000000E+00  0.00000000E+00  0.00000000E+00
  0.00000000E+00  0.00000000E+00  0.00000000E+00
  0.00000000E+00  0.00000000E+00  0.00000000E+00
  0.00000000E+00  0.00000000E+00  0.00000000E+00
  0.00000000E+00  0.00000000E+00  0.00000000E+00
  0.00000000E+00  0.00000000E+00  0.00000000E+00
  0.00000000E+00  0.00000000E+00  0.00000000E+00
  0.00000000E+00  0.00000000E+00  0.00000000E+00
  0.00000000E+00  0.00000000E+00  0.00000000E+00
  0.00000000E+00  0.00000000E+00  0.00000000E+00
  0.00000000E+00  0.00000000E+00  0.00000000E+00
  0.00000000E+00  0.00000000E+00  0.00000000E+00
  0.00000000E+00  0.00000000E+00  0.00000000E+00
  0.00000000E+00  0.00000000E+00  0.00000000E+00
  0.00000000E+00  0.00000000E+00  0.00000000E+00
  0.00000000E+00  0.00000000E+00  0.00000000E+00
  0.00000000E+00  0.00000000E+00  0.00000000E+00
  0.00000000E+00  0.00000000E+00  0.00000000E+00
  0.00000000E+00  0.00000000E+00  0.00000000E+00
  0.00000000E+00  0.00000000E+00  0.00000000E+00
  0.00000000E+00  0.00000000E+00  0.00000000E+00
  0.00000000E+00  0.00000000E+00  0.00000000E+00
  0.00000000E+00  0.00000000E+00  0.00000000E+00
  0.00000000E+00  0.00000000E+00  0.00000000E+00
  0.00000000E+00  0.00000000E+00  0.00000000E+00
  0.00000000E+00  0.00000000E+00  0.00000000E+00
  0.00000000E+00  0.00000000E+00  0.00000000E+00
  0.00000000E+00  0.00000000E+00  0.00000000E+00
  0.00000000E+00  0.00000000E+00  0.00000000E+00
  0.00000000E+00  0.00000000E+00  0.00000000E+00
  0.00000000E+00  0.00000000E+00  0.00000000E+00
  0.00000000E+00  0.00000000E+00  0.00000000E+00
  0.00000000E+00  0.00000000E+00  0.00000000E+00
  0.00000000E+00  0.00000000E+00  0.00000000E+00
  0.00000000E+00  0.00000000E+00  0.00000000E+00
  0.00000000E+00  0.00000000E+00  0.00000000E+00
  0.00000000E+00  0.00000000E+00  0.00000000E+00
  0.00000000E+00  0.00000000E+00  0.00000000E+00
  0.00000000E+00  0.00000000E+00  0.00000000E+00
  0.00000000E+00  0.00000000E+00  0.00000000E+00
  0.00000000E+00  0.00000000E+00  0.00000000E+00
  0.00000000E+00  0.00000000E+00  0.00000000E+00
  0.00000000E+00  0.00000000E+00  0.00000000E+00
  0.00000000E+00  0.00000000E+00  0.00000000E+00
  0.00000000E+00  0.00000000E+00  0.00000000E+00
  0.00000000E+00  0.00000000E+00  0.00000000E+00
  0.00000000E+00  0.00000000E+00  0.00000000E+00
  0.00000000E+00  0.00000000E+00  0.00000000E+00
  0.00000000E+00  0.00000000E+00  0.00000000E+00
  0.00000000E+00  0.00000000E+00  0.00000000E+00
  0.00000000E+00  0.00000000E+00  0.00000000E+00
  0.00000000E+00  0.00000000E+00  0.00000000E+00
  0.00000000E+00  0.00000000E+00  0.00000000E+00
  0.00000000E+00  0.00000000E+00  0.00000000E+00
  0.00000000E+00  0.00000000E+00  0.00000000E+00
  0.00000000E+00  0.00000000E+00  0.00000000E+00
  0.00000000E+00  0.00000000E+00  0.00000000E+00
  0.00000000E+00  0.00000000E+00  0.00000000E+00
  0.00000000E+00  0.00000000E+00  0.00000000E+00
  0.00000000E+00  0.00000000E+00  0.00000000E+00
  0.00000000E+00  0.00000000E+00  0.00000000E+00
  0.00000000E+00  0.00000000E+00  0.00000000E+00
  0.00000000E+00  0.00000000E+00  0.00000000E+00
  0.00000000E+00  0.00000000E+00  0.00000000E+00
  0.00000000E+00  0.00000000E+00  0.00000000E+00
  0.00000000E+00  0.00000000E+00  0.00000000E+00
  0.00000000E+00  0.00000000E+00  0.00000000E+00
  0.00000000E+00  0.00000000E+00  0.00000000E+00