New structure                           
    1.000000000000000     
     0.0000000000000000  -15.1462217587961998    0.0000000000000000
     0.0000000000000000   -7.5731108793980804  -13.1170128144700993
    29.0000000000000000    0.0000000000000000    0.0000000000000000
   Ni   O 
   252     2
Direct
  0.4444444994194185  0.4444441796663341  0.1043451724137938
  0.4444443887655183  0.7777776956004416  0.1043451724137938
  0.4444442288889761  0.1111114261009334  0.1043451724137938
  0.7777777940457113  0.4444441796663341  0.1043451724137938
  0.7777776833918111  0.7777776956004416  0.1043451724137938
  0.7777775235152689  0.1111114261009334  0.1043451724137938
  0.1111112047931258  0.4444441796663341  0.1043451724137938
  0.1111110941392184  0.7777776956004416  0.1043451724137938
  0.1111109342626833  0.1111114261009334  0.1043451724137938
  0.5555554336821018  0.5555556057672746  0.1731855172413788
  0.5555553230281944  0.8888891217013750  0.1731855172413788
  0.5555555443360021  0.2222220898331670  0.1731855172413788
  0.8888887283083946  0.5555556057672746  0.1731855172413788
  0.8888886176544872  0.8888891217013750  0.1731855172413788
  0.8888888389622949  0.2222220898331670  0.1731855172413788
  0.2222221390558090  0.5555556057672746  0.1731855172413788
  0.2222220284019016  0.8888891217013750  0.1731855172413788
  0.2222222497097093  0.2222220898331670  0.1731855172413788
  0.6666663679447780  0.6666670318682080  0.2424989655172425
  0.6666665892525856  0.0000000000000000  0.2424989655172425
  0.6666664785986853  0.3333335159341004  0.2424989655172425
  0.9999997786921924  0.6666670318682080  0.2424989655172425
  0.0000000000000000  0.0000000000000000  0.2424989655172425
  0.9999998893460926  0.3333335159341004  0.2424989655172425
  0.3333330733184852  0.6666670318682080  0.2424989655172425
  0.3333332946262928  0.0000000000000000  0.2424989655172425
  0.3333331839723925  0.3333335159341004  0.2424989655172425
  0.7777776833918111  0.7777776956004416  0.3117306896551710
  0.7777775235152689  0.1111114261009334  0.3117306896551710
  0.7777777940457113  0.4444441796663341  0.3117306896551710
  0.1111110941392184  0.7777776956004416  0.3117306896551710
  0.1111109342626833  0.1111114261009334  0.3117306896551710
  0.1111112047931258  0.4444441796663341  0.3117306896551710
  0.4444443887655183  0.7777776956004416  0.3117306896551710
  0.4444442288889761  0.1111114261009334  0.3117306896551710
  0.4444444994194185  0.4444441796663341  0.3117306896551710
  0.8888886176544872  0.8888891217013750  0.3809624137931067
  0.8888888389622949  0.2222220898331670  0.3809624137931067
  0.8888887283083946  0.5555556057672746  0.3809624137931067
  0.2222220284019016  0.8888891217013750  0.3809624137931067
  0.2222222497097093  0.2222220898331670  0.3809624137931067
  0.2222221390558090  0.5555556057672746  0.3809624137931067
  0.5555553230281944  0.8888891217013750  0.3809624137931067
  0.5555555443360021  0.2222220898331670  0.3809624137931067
  0.5555554336821018  0.5555556057672746  0.3809624137931067
  0.0000000000000000  0.0000000000000000  0.4502758620689633
  0.9999998893460926  0.3333335159341004  0.4502758620689633
  0.9999997786921924  0.6666670318682080  0.4502758620689633
  0.3333332946262928  0.0000000000000000  0.4502758620689633
  0.3333331839723925  0.3333335159341004  0.4502758620689633
  0.3333330733184852  0.6666670318682080  0.4502758620689633
  0.6666665892525856  0.0000000000000000  0.4502758620689633
  0.6666664785986853  0.3333335159341004  0.4502758620689633
  0.6666663679447780  0.6666670318682080  0.4502758620689633
  0.1111109342626833  0.1111114261009334  0.5191162068965482
  0.1111112047931258  0.4444441796663341  0.5191162068965482
  0.1111110941392184  0.7777776956004416  0.5191162068965482
  0.4444442288889761  0.1111114261009334  0.5191162068965482
  0.4444444994194185  0.4444441796663341  0.5191162068965482
  0.4444443887655183  0.7777776956004416  0.5191162068965482
  0.7777775235152689  0.1111114261009334  0.5191162068965482
  0.7777777940457113  0.4444441796663341  0.5191162068965482
  0.7777776833918111  0.7777776956004416  0.5191162068965482
  0.2777782375485529  0.2777774216992839  0.1043451724137938
  0.2777781268946526  0.6111109376333914  0.1043451724137938
  0.2777780162407453  0.9444444535674918  0.1043451724137938
  0.6111115321748528  0.2777774216992839  0.1043451724137938
  0.6111114215209454  0.6111109376333914  0.1043451724137938
  0.6111113108670381  0.9444444535674918  0.1043451724137938
  0.9444448268011456  0.2777774216992839  0.1043451724137938
  0.9444447161472382  0.6111109376333914  0.1043451724137938
  0.9444446054933380  0.9444444535674918  0.1043451724137938
  0.3888891718112362  0.3888888478002173  0.1731855172413788
  0.3888890611573288  0.7222223637343248  0.1731855172413788
  0.3888892824651364  0.0555553318661168  0.1731855172413788
  0.7222224664375290  0.3888888478002173  0.1731855172413788
  0.7222223557836287  0.7222223637343248  0.1731855172413788
  0.7222225770914363  0.0555553318661168  0.1731855172413788
  0.0555558771849434  0.3888888478002173  0.1731855172413788
  0.0555557665310360  0.7222223637343248  0.1731855172413788
  0.0555559878388436  0.0555553318661168  0.1731855172413788
  0.5000001060739123  0.5000002739011578  0.2424989655172425
  0.5000003766043619  0.8333330274665585  0.2424989655172425
  0.5000002167278197  0.1666667579670502  0.2424989655172425
  0.8333334007002122  0.5000002739011578  0.2424989655172425
  0.8333336712306547  0.8333330274665585  0.2424989655172425
  0.8333335113541125  0.1666667579670502  0.2424989655172425
  0.1666668114476195  0.5000002739011578  0.2424989655172425
  0.1666670819780691  0.8333330274665585  0.2424989655172425
  0.1666669221015269  0.1666667579670502  0.2424989655172425
  0.6111114215209454  0.6111109376333914  0.3117306896551710
  0.6111113108670381  0.9444444535674918  0.3117306896551710
  0.6111115321748528  0.2777774216992839  0.3117306896551710
  0.9444447161472382  0.6111109376333914  0.3117306896551710
  0.9444446054933380  0.9444444535674918  0.3117306896551710
  0.9444448268011456  0.2777774216992839  0.3117306896551710
  0.2777781268946526  0.6111109376333914  0.3117306896551710
  0.2777780162407453  0.9444444535674918  0.3117306896551710
  0.2777782375485529  0.2777774216992839  0.3117306896551710
  0.7222223557836287  0.7222223637343248  0.3809624137931067
  0.7222225770914363  0.0555553318661168  0.3809624137931067
  0.7222224664375290  0.3888888478002173  0.3809624137931067
  0.0555557665310360  0.7222223637343248  0.3809624137931067
  0.0555559878388436  0.0555553318661168  0.3809624137931067
  0.0555558771849434  0.3888888478002173  0.3809624137931067
  0.3888890611573288  0.7222223637343248  0.3809624137931067
  0.3888892824651364  0.0555553318661168  0.3809624137931067
  0.3888891718112362  0.3888888478002173  0.3809624137931067
  0.8333336712306547  0.8333330274665585  0.4502758620689633
  0.8333335113541125  0.1666667579670502  0.4502758620689633
  0.8333334007002122  0.5000002739011578  0.4502758620689633
  0.1666670819780691  0.8333330274665585  0.4502758620689633
  0.1666669221015269  0.1666667579670502  0.4502758620689633
  0.1666668114476195  0.5000002739011578  0.4502758620689633
  0.5000003766043619  0.8333330274665585  0.4502758620689633
  0.5000002167278197  0.1666667579670502  0.4502758620689633
  0.5000001060739123  0.5000002739011578  0.4502758620689633
  0.9444446054933380  0.9444444535674918  0.5191162068965482
  0.9444448268011456  0.2777774216992839  0.5191162068965482
  0.9444447161472382  0.6111109376333914  0.5191162068965482
  0.2777780162407453  0.9444444535674918  0.5191162068965482
  0.2777782375485529  0.2777774216992839  0.5191162068965482
  0.2777781268946526  0.6111109376333914  0.5191162068965482
  0.6111113108670381  0.9444444535674918  0.5191162068965482
  0.6111115321748528  0.2777774216992839  0.5191162068965482
  0.6111114215209454  0.6111109376333914  0.5191162068965482
  0.2777778521062757  0.4444441796663341  0.1043451724137938
  0.2777777414523683  0.7777776956004416  0.1043451724137938
  0.2777775815758261  0.1111114261009334  0.1043451724137938
  0.6111111467325685  0.4444441796663341  0.1043451724137938
  0.6111110360786611  0.7777776956004416  0.1043451724137938
  0.6111108762021189  0.1111114261009334  0.1043451724137938
  0.9444444413588613  0.4444441796663341  0.1043451724137938
  0.9444443307049539  0.7777776956004416  0.1043451724137938
  0.9444441708284188  0.1111114261009334  0.1043451724137938
  0.3888887863689519  0.5555556057672746  0.1731855172413788
  0.3888886757150516  0.8888891217013750  0.1731855172413788
  0.3888888970228592  0.2222220898331670  0.1731855172413788
  0.7222220809952447  0.5555556057672746  0.1731855172413788
  0.7222219703413444  0.8888891217013750  0.1731855172413788
  0.7222221916491520  0.2222220898331670  0.1731855172413788
  0.0555554917426591  0.5555556057672746  0.1731855172413788
  0.0555553810887517  0.8888891217013750  0.1731855172413788
  0.0555556023965664  0.2222220898331670  0.1731855172413788
  0.4999997206316351  0.6666670318682080  0.2424989655172425
  0.4999999419394427  0.0000000000000000  0.2424989655172425
  0.4999998312855354  0.3333335159341004  0.2424989655172425
  0.8333330152579279  0.6666670318682080  0.2424989655172425
  0.8333332365657355  0.0000000000000000  0.2424989655172425
  0.8333331259118282  0.3333335159341004  0.2424989655172425
  0.1666664260053423  0.6666670318682080  0.2424989655172425
  0.1666666473131500  0.0000000000000000  0.2424989655172425
  0.1666665366592426  0.3333335159341004  0.2424989655172425
  0.6111110360786611  0.7777776956004416  0.3117306896551710
  0.6111108762021189  0.1111114261009334  0.3117306896551710
  0.6111111467325685  0.4444441796663341  0.3117306896551710
  0.9444443307049539  0.7777776956004416  0.3117306896551710
  0.9444441708284188  0.1111114261009334  0.3117306896551710
  0.9444444413588613  0.4444441796663341  0.3117306896551710
  0.2777777414523683  0.7777776956004416  0.3117306896551710
  0.2777775815758261  0.1111114261009334  0.3117306896551710
  0.2777778521062757  0.4444441796663341  0.3117306896551710
  0.7222219703413444  0.8888891217013750  0.3809624137931067
  0.7222221916491520  0.2222220898331670  0.3809624137931067
  0.7222220809952447  0.5555556057672746  0.3809624137931067
  0.0555553810887517  0.8888891217013750  0.3809624137931067
  0.0555556023965664  0.2222220898331670  0.3809624137931067
  0.0555554917426591  0.5555556057672746  0.3809624137931067
  0.3888886757150516  0.8888891217013750  0.3809624137931067
  0.3888888970228592  0.2222220898331670  0.3809624137931067
  0.3888887863689519  0.5555556057672746  0.3809624137931067
  0.8333332365657355  0.0000000000000000  0.4502758620689633
  0.8333331259118282  0.3333335159341004  0.4502758620689633
  0.8333330152579279  0.6666670318682080  0.4502758620689633
  0.1666666473131500  0.0000000000000000  0.4502758620689633
  0.1666665366592426  0.3333335159341004  0.4502758620689633
  0.1666664260053423  0.6666670318682080  0.4502758620689633
  0.4999999419394427  0.0000000000000000  0.4502758620689633
  0.4999998312855354  0.3333335159341004  0.4502758620689633
  0.4999997206316351  0.6666670318682080  0.4502758620689633
  0.9444441708284188  0.1111114261009334  0.5191162068965482
  0.9444444413588613  0.4444441796663341  0.5191162068965482
  0.9444443307049539  0.7777776956004416  0.5191162068965482
  0.2777775815758261  0.1111114261009334  0.5191162068965482
  0.2777778521062757  0.4444441796663341  0.5191162068965482
  0.2777777414523683  0.7777776956004416  0.5191162068965482
  0.6111108762021189  0.1111114261009334  0.5191162068965482
  0.6111111467325685  0.4444441796663341  0.5191162068965482
  0.6111110360786611  0.7777776956004416  0.5191162068965482
  0.4444448848617029  0.2777774216992839  0.1043451724137938
  0.4444447742077955  0.6111109376333914  0.1043451724137938
  0.4444446635538952  0.9444444535674918  0.1043451724137938
  0.7777781794879957  0.2777774216992839  0.1043451724137938
  0.7777780688340954  0.6111109376333914  0.1043451724137938
  0.7777779581801880  0.9444444535674918  0.1043451724137938
  0.1111115902354101  0.2777774216992839  0.1043451724137938
  0.1111114795815027  0.6111109376333914  0.1043451724137938
  0.1111113689276024  0.9444444535674918  0.1043451724137938
  0.5555558191243790  0.3888888478002173  0.1731855172413788
  0.5555557084704787  0.7222223637343248  0.1731855172413788
  0.5555559297782864  0.0555553318661168  0.1731855172413788
  0.8888891137506789  0.3888888478002173  0.1731855172413788
  0.8888890030967715  0.7222223637343248  0.1731855172413788
  0.8888892244045792  0.0555553318661168  0.1731855172413788
  0.2222225244980862  0.3888888478002173  0.1731855172413788
  0.2222224138441860  0.7222223637343248  0.1731855172413788
  0.2222226351519936  0.0555553318661168  0.1731855172413788
  0.6666667533870623  0.5000002739011578  0.2424989655172425
  0.6666670239175119  0.8333330274665585  0.2424989655172425
  0.6666668640409696  0.1666667579670502  0.2424989655172425
  0.0000001641344767  0.5000002739011578  0.2424989655172425
  0.0000004346649192  0.8333330274665585  0.2424989655172425
  0.0000002747883769  0.1666667579670502  0.2424989655172425
  0.3333334587607695  0.5000002739011578  0.2424989655172425
  0.3333337292912120  0.8333330274665585  0.2424989655172425
  0.3333335694146697  0.1666667579670502  0.2424989655172425
  0.7777780688340954  0.6111109376333914  0.3117306896551710
  0.7777779581801880  0.9444444535674918  0.3117306896551710
  0.7777781794879957  0.2777774216992839  0.3117306896551710
  0.1111114795815027  0.6111109376333914  0.3117306896551710
  0.1111113689276024  0.9444444535674918  0.3117306896551710
  0.1111115902354101  0.2777774216992839  0.3117306896551710
  0.4444447742077955  0.6111109376333914  0.3117306896551710
  0.4444446635538952  0.9444444535674918  0.3117306896551710
  0.4444448848617029  0.2777774216992839  0.3117306896551710
  0.8888890030967715  0.7222223637343248  0.3809624137931067
  0.8888892244045792  0.0555553318661168  0.3809624137931067
  0.8888891137506789  0.3888888478002173  0.3809624137931067
  0.2222224138441860  0.7222223637343248  0.3809624137931067
  0.2222226351519936  0.0555553318661168  0.3809624137931067
  0.2222225244980862  0.3888888478002173  0.3809624137931067
  0.5555557084704787  0.7222223637343248  0.3809624137931067
  0.5555559297782864  0.0555553318661168  0.3809624137931067
  0.5555558191243790  0.3888888478002173  0.3809624137931067
  0.0000004346649192  0.8333330274665585  0.4502758620689633
  0.0000002747883769  0.1666667579670502  0.4502758620689633
  0.0000001641344767  0.5000002739011578  0.4502758620689633
  0.3333337292912120  0.8333330274665585  0.4502758620689633
  0.3333335694146697  0.1666667579670502  0.4502758620689633
  0.3333334587607695  0.5000002739011578  0.4502758620689633
  0.6666670239175119  0.8333330274665585  0.4502758620689633
  0.6666668640409696  0.1666667579670502  0.4502758620689633
  0.6666667533870623  0.5000002739011578  0.4502758620689633
  0.1111113689276024  0.9444444535674918  0.5191162068965482
  0.1111115902354101  0.2777774216992839  0.5191162068965482
  0.1111114795815027  0.6111109376333914  0.5191162068965482
  0.4444446635538952  0.9444444535674918  0.5191162068965482
  0.4444448848617029  0.2777774216992839  0.5191162068965482
  0.4444447742077955  0.6111109376333914  0.5191162068965482
  0.7777779581801880  0.9444444535674918  0.5191162068965482
  0.7777781794879957  0.2777774216992839  0.5191162068965482
  0.7777780688340954  0.6111109376333914  0.5191162068965482
  0.5556180122772574  0.3888080367180820  0.6224137931034477
  0.4999650972176113  0.5001138668373741  0.6224137931034477
 
  0.00000000E+00  0.00000000E+00  0.00000000E+00
  0.00000000E+00  0.00000000E+00  0.00000000E+00
  0.00000000E+00  0.00000000E+00  0.00000000E+00
  0.00000000E+00  0.00000000E+00  0.00000000E+00
  0.00000000E+00  0.00000000E+00  0.00000000E+00
  0.00000000E+00  0.00000000E+00  0.00000000E+00
  0.00000000E+00  0.00000000E+00  0.00000000E+00
  0.00000000E+00  0.00000000E+00  0.00000000E+00
  0.00000000E+00  0.00000000E+00  0.00000000E+00
  0.00000000E+00  0.00000000E+00  0.00000000E+00
  0.00000000E+00  0.00000000E+00  0.00000000E+00
  0.00000000E+00  0.00000000E+00  0.00000000E+00
  0.00000000E+00  0.00000000E+00  0.00000000E+00
  0.00000000E+00  0.00000000E+00  0.00000000E+00
  0.00000000E+00  0.00000000E+00  0.00000000E+00
  0.00000000E+00  0.00000000E+00  0.00000000E+00
  0.00000000E+00  0.00000000E+00  0.00000000E+00
  0.00000000E+00  0.00000000E+00  0.00000000E+00
  0.00000000E+00  0.00000000E+00  0.00000000E+00
  0.00000000E+00  0.00000000E+00  0.00000000E+00
  0.00000000E+00  0.00000000E+00  0.00000000E+00
  0.00000000E+00  0.00000000E+00  0.00000000E+00
  0.00000000E+00  0.00000000E+00  0.00000000E+00
  0.00000000E+00  0.00000000E+00  0.00000000E+00
  0.00000000E+00  0.00000000E+00  0.00000000E+00
  0.00000000E+00  0.00000000E+00  0.00000000E+00
  0.00000000E+00  0.00000000E+00  0.00000000E+00
  0.00000000E+00  0.00000000E+00  0.00000000E+00
  0.00000000E+00  0.00000000E+00  0.00000000E+00
  0.00000000E+00  0.00000000E+00  0.00000000E+00
  0.00000000E+00  0.00000000E+00  0.00000000E+00
  0.00000000E+00  0.00000000E+00  0.00000000E+00
  0.00000000E+00  0.00000000E+00  0.00000000E+00
  0.00000000E+00  0.00000000E+00  0.00000000E+00
  0.00000000E+00  0.00000000E+00  0.00000000E+00
  0.00000000E+00  0.00000000E+00  0.00000000E+00
  0.00000000E+00  0.00000000E+00  0.00000000E+00
  0.00000000E+00  0.00000000E+00  0.00000000E+00
  0.00000000E+00  0.00000000E+00  0.00000000E+00
  0.00000000E+00  0.00000000E+00  0.00000000E+00
  0.00000000E+00  0.00000000E+00  0.00000000E+00
  0.00000000E+00  0.00000000E+00  0.00000000E+00
  0.00000000E+00  0.00000000E+00  0.00000000E+00
  0.00000000E+00  0.00000000E+00  0.00000000E+00
  0.00000000E+00  0.00000000E+00  0.00000000E+00
  0.00000000E+00  0.00000000E+00  0.00000000E+00
  0.00000000E+00  0.00000000E+00  0.00000000E+00
  0.00000000E+00  0.00000000E+00  0.00000000E+00
  0.00000000E+00  0.00000000E+00  0.00000000E+00
  0.00000000E+00  0.00000000E+00  0.00000000E+00
  0.00000000E+00  0.00000000E+00  0.00000000E+00
  0.00000000E+00  0.00000000E+00  0.00000000E+00
  0.00000000E+00  0.00000000E+00  0.00000000E+00
  0.00000000E+00  0.00000000E+00  0.00000000E+00
  0.00000000E+00  0.00000000E+00  0.00000000E+00
  0.00000000E+00  0.00000000E+00  0.00000000E+00
  0.00000000E+00  0.00000000E+00  0.00000000E+00
  0.00000000E+00  0.00000000E+00  0.00000000E+00
  0.00000000E+00  0.00000000E+00  0.00000000E+00
  0.00000000E+00  0.00000000E+00  0.00000000E+00
  0.00000000E+00  0.00000000E+00  0.00000000E+00
  0.00000000E+00  0.00000000E+00  0.00000000E+00
  0.00000000E+00  0.00000000E+00  0.00000000E+00
  0.00000000E+00  0.00000000E+00  0.00000000E+00
  0.00000000E+00  0.00000000E+00  0.00000000E+00
  0.00000000E+00  0.00000000E+00  0.00000000E+00
  0.00000000E+00  0.00000000E+00  0.00000000E+00
  0.00000000E+00  0.00000000E+00  0.00000000E+00
  0.00000000E+00  0.00000000E+00  0.00000000E+00
  0.00000000E+00  0.00000000E+00  0.00000000E+00
  0.00000000E+00  0.00000000E+00  0.00000000E+00
  0.00000000E+00  0.00000000E+00  0.00000000E+00
  0.00000000E+00  0.00000000E+00  0.00000000E+00
  0.00000000E+00  0.00000000E+00  0.00000000E+00
  0.00000000E+00  0.00000000E+00  0.00000000E+00
  0.00000000E+00  0.00000000E+00  0.00000000E+00
  0.00000000E+00  0.00000000E+00  0.00000000E+00
  0.00000000E+00  0.00000000E+00  0.00000000E+00
  0.00000000E+00  0.00000000E+00  0.00000000E+00
  0.00000000E+00  0.00000000E+00  0.00000000E+00
  0.00000000E+00  0.00000000E+00  0.00000000E+00
  0.00000000E+00  0.00000000E+00  0.00000000E+00
  0.00000000E+00  0.00000000E+00  0.00000000E+00
  0.00000000E+00  0.00000000E+00  0.00000000E+00
  0.00000000E+00  0.00000000E+00  0.00000000E+00
  0.00000000E+00  0.00000000E+00  0.00000000E+00
  0.00000000E+00  0.00000000E+00  0.00000000E+00
  0.00000000E+00  0.00000000E+00  0.00000000E+00
  0.00000000E+00  0.00000000E+00  0.00000000E+00
  0.00000000E+00  0.00000000E+00  0.00000000E+00
  0.00000000E+00  0.00000000E+00  0.00000000E+00
  0.00000000E+00  0.00000000E+00  0.00000000E+00
  0.00000000E+00  0.00000000E+00  0.00000000E+00
  0.00000000E+00  0.00000000E+00  0.00000000E+00
  0.00000000E+00  0.00000000E+00  0.00000000E+00
  0.00000000E+00  0.00000000E+00  0.00000000E+00
  0.00000000E+00  0.00000000E+00  0.00000000E+00
  0.00000000E+00  0.00000000E+00  0.00000000E+00
  0.00000000E+00  0.00000000E+00  0.00000000E+00
  0.00000000E+00  0.00000000E+00  0.00000000E+00
  0.00000000E+00  0.00000000E+00  0.00000000E+00
  0.00000000E+00  0.00000000E+00  0.00000000E+00
  0.00000000E+00  0.00000000E+00  0.00000000E+00
  0.00000000E+00  0.00000000E+00  0.00000000E+00
  0.00000000E+00  0.00000000E+00  0.00000000E+00
  0.00000000E+00  0.00000000E+00  0.00000000E+00
  0.00000000E+00  0.00000000E+00  0.00000000E+00
  0.00000000E+00  0.00000000E+00  0.00000000E+00
  0.00000000E+00  0.00000000E+00  0.00000000E+00
  0.00000000E+00  0.00000000E+00  0.00000000E+00
  0.00000000E+00  0.00000000E+00  0.00000000E+00
  0.00000000E+00  0.00000000E+00  0.00000000E+00
  0.00000000E+00  0.00000000E+00  0.00000000E+00
  0.00000000E+00  0.00000000E+00  0.00000000E+00
  0.00000000E+00  0.00000000E+00  0.00000000E+00
  0.00000000E+00  0.00000000E+00  0.00000000E+00
  0.00000000E+00  0.00000000E+00  0.00000000E+00
  0.00000000E+00  0.00000000E+00  0.00000000E+00
  0.00000000E+00  0.00000000E+00  0.00000000E+00
  0.00000000E+00  0.00000000E+00  0.00000000E+00
  0.00000000E+00  0.00000000E+00  0.00000000E+00
  0.00000000E+00  0.00000000E+00  0.00000000E+00
  0.00000000E+00  0.00000000E+00  0.00000000E+00
  0.00000000E+00  0.00000000E+00  0.00000000E+00
  0.00000000E+00  0.00000000E+00  0.00000000E+00
  0.00000000E+00  0.00000000E+00  0.00000000E+00
  0.00000000E+00  0.00000000E+00  0.00000000E+00
  0.00000000E+00  0.00000000E+00  0.00000000E+00
  0.00000000E+00  0.00000000E+00  0.00000000E+00
  0.00000000E+00  0.00000000E+00  0.00000000E+00
  0.00000000E+00  0.00000000E+00  0.00000000E+00
  0.00000000E+00  0.00000000E+00  0.00000000E+00
  0.00000000E+00  0.00000000E+00  0.00000000E+00
  0.00000000E+00  0.00000000E+00  0.00000000E+00
  0.00000000E+00  0.00000000E+00  0.00000000E+00
  0.00000000E+00  0.00000000E+00  0.00000000E+00
  0.00000000E+00  0.00000000E+00  0.00000000E+00
  0.00000000E+00  0.00000000E+00  0.00000000E+00
  0.00000000E+00  0.00000000E+00  0.00000000E+00
  0.00000000E+00  0.00000000E+00  0.00000000E+00
  0.00000000E+00  0.00000000E+00  0.00000000E+00
  0.00000000E+00  0.00000000E+00  0.00000000E+00
  0.00000000E+00  0.00000000E+00  0.00000000E+00
  0.00000000E+00  0.00000000E+00  0.00000000E+00
  0.00000000E+00  0.00000000E+00  0.00000000E+00
  0.00000000E+00  0.00000000E+00  0.00000000E+00
  0.00000000E+00  0.00000000E+00  0.00000000E+00
  0.00000000E+00  0.00000000E+00  0.00000000E+00
  0.00000000E+00  0.00000000E+00  0.00000000E+00
  0.00000000E+00  0.00000000E+00  0.00000000E+00
  0.00000000E+00  0.00000000E+00  0.00000000E+00
  0.00000000E+00  0.00000000E+00  0.00000000E+00
  0.00000000E+00  0.00000000E+00  0.00000000E+00
  0.00000000E+00  0.00000000E+00  0.00000000E+00
  0.00000000E+00  0.00000000E+00  0.00000000E+00
  0.00000000E+00  0.00000000E+00  0.00000000E+00
  0.00000000E+00  0.00000000E+00  0.00000000E+00
  0.00000000E+00  0.00000000E+00  0.00000000E+00
  0.00000000E+00  0.00000000E+00  0.00000000E+00
  0.00000000E+00  0.00000000E+00  0.00000000E+00
  0.00000000E+00  0.00000000E+00  0.00000000E+00
  0.00000000E+00  0.00000000E+00  0.00000000E+00
  0.00000000E+00  0.00000000E+00  0.00000000E+00
  0.00000000E+00  0.00000000E+00  0.00000000E+00
  0.00000000E+00  0.00000000E+00  0.00000000E+00
  0.00000000E+00  0.00000000E+00  0.00000000E+00
  0.00000000E+00  0.00000000E+00  0.00000000E+00
  0.00000000E+00  0.00000000E+00  0.00000000E+00
  0.00000000E+00  0.00000000E+00  0.00000000E+00
  0.00000000E+00  0.00000000E+00  0.00000000E+00
  0.00000000E+00  0.00000000E+00  0.00000000E+00
  0.00000000E+00  0.00000000E+00  0.00000000E+00
  0.00000000E+00  0.00000000E+00  0.00000000E+00
  0.00000000E+00  0.00000000E+00  0.00000000E+00
  0.00000000E+00  0.00000000E+00  0.00000000E+00
  0.00000000E+00  0.00000000E+00  0.00000000E+00
  0.00000000E+00  0.00000000E+00  0.00000000E+00
  0.00000000E+00  0.00000000E+00  0.00000000E+00
  0.00000000E+00  0.00000000E+00  0.00000000E+00
  0.00000000E+00  0.00000000E+00  0.00000000E+00
  0.00000000E+00  0.00000000E+00  0.00000000E+00
  0.00000000E+00  0.00000000E+00  0.00000000E+00
  0.00000000E+00  0.00000000E+00  0.00000000E+00
  0.00000000E+00  0.00000000E+00  0.00000000E+00
  0.00000000E+00  0.00000000E+00  0.00000000E+00
  0.00000000E+00  0.00000000E+00  0.00000000E+00
  0.00000000E+00  0.00000000E+00  0.00000000E+00
  0.00000000E+00  0.00000000E+00  0.00000000E+00
  0.00000000E+00  0.00000000E+00  0.00000000E+00
  0.00000000E+00  0.00000000E+00  0.00000000E+00
  0.00000000E+00  0.00000000E+00  0.00000000E+00
  0.00000000E+00  0.00000000E+00  0.00000000E+00
  0.00000000E+00  0.00000000E+00  0.00000000E+00
  0.00000000E+00  0.00000000E+00  0.00000000E+00
  0.00000000E+00  0.00000000E+00  0.00000000E+00
  0.00000000E+00  0.00000000E+00  0.00000000E+00
  0.00000000E+00  0.00000000E+00  0.00000000E+00
  0.00000000E+00  0.00000000E+00  0.00000000E+00
  0.00000000E+00  0.00000000E+00  0.00000000E+00
  0.00000000E+00  0.00000000E+00  0.00000000E+00
  0.00000000E+00  0.00000000E+00  0.00000000E+00
  0.00000000E+00  0.00000000E+00  0.00000000E+00
  0.00000000E+00  0.00000000E+00  0.00000000E+00
  0.00000000E+00  0.00000000E+00  0.00000000E+00
  0.00000000E+00  0.00000000E+00  0.00000000E+00
  0.00000000E+00  0.00000000E+00  0.00000000E+00
  0.00000000E+00  0.00000000E+00  0.00000000E+00
  0.00000000E+00  0.00000000E+00  0.00000000E+00
  0.00000000E+00  0.00000000E+00  0.00000000E+00
  0.00000000E+00  0.00000000E+00  0.00000000E+00
  0.00000000E+00  0.00000000E+00  0.00000000E+00
  0.00000000E+00  0.00000000E+00  0.00000000E+00
  0.00000000E+00  0.00000000E+00  0.00000000E+00
  0.00000000E+00  0.00000000E+00  0.00000000E+00
  0.00000000E+00  0.00000000E+00  0.00000000E+00
  0.00000000E+00  0.00000000E+00  0.00000000E+00
  0.00000000E+00  0.00000000E+00  0.00000000E+00
  0.00000000E+00  0.00000000E+00  0.00000000E+00
  0.00000000E+00  0.00000000E+00  0.00000000E+00
  0.00000000E+00  0.00000000E+00  0.00000000E+00
  0.00000000E+00  0.00000000E+00  0.00000000E+00
  0.00000000E+00  0.00000000E+00  0.00000000E+00
  0.00000000E+00  0.00000000E+00  0.00000000E+00
  0.00000000E+00  0.00000000E+00  0.00000000E+00
  0.00000000E+00  0.00000000E+00  0.00000000E+00
  0.00000000E+00  0.00000000E+00  0.00000000E+00
  0.00000000E+00  0.00000000E+00  0.00000000E+00
  0.00000000E+00  0.00000000E+00  0.00000000E+00
  0.00000000E+00  0.00000000E+00  0.00000000E+00
  0.00000000E+00  0.00000000E+00  0.00000000E+00
  0.00000000E+00  0.00000000E+00  0.00000000E+00
  0.00000000E+00  0.00000000E+00  0.00000000E+00
  0.00000000E+00  0.00000000E+00  0.00000000E+00
  0.00000000E+00  0.00000000E+00  0.00000000E+00
  0.00000000E+00  0.00000000E+00  0.00000000E+00
  0.00000000E+00  0.00000000E+00  0.00000000E+00
  0.00000000E+00  0.00000000E+00  0.00000000E+00
  0.00000000E+00  0.00000000E+00  0.00000000E+00
  0.00000000E+00  0.00000000E+00  0.00000000E+00
  0.00000000E+00  0.00000000E+00  0.00000000E+00
  0.00000000E+00  0.00000000E+00  0.00000000E+00
  0.00000000E+00  0.00000000E+00  0.00000000E+00
  0.00000000E+00  0.00000000E+00  0.00000000E+00
  0.00000000E+00  0.00000000E+00  0.00000000E+00
  0.00000000E+00  0.00000000E+00  0.00000000E+00
  0.00000000E+00  0.00000000E+00  0.00000000E+00
  0.00000000E+00  0.00000000E+00  0.00000000E+00
  0.00000000E+00  0.00000000E+00  0.00000000E+00
  0.00000000E+00  0.00000000E+00  0.00000000E+00
  0.00000000E+00  0.00000000E+00  0.00000000E+00
  0.00000000E+00  0.00000000E+00  0.00000000E+00
  0.00000000E+00  0.00000000E+00  0.00000000E+00
  0.00000000E+00  0.00000000E+00  0.00000000E+00
  0.00000000E+00  0.00000000E+00  0.00000000E+00
